CRYSTAL
# Primitive lattice vectors in Angstrom
PRIMVEC
 5.88100642747225 0.00000000000000 0.00000000000000
 -0.00000000000000 5.88100642747225 0.00000000000000
 0.00000000000000 0.00000000000000 5.88100642747225
# Cartesian coordinates in Angstrom.
PRIMCOORD
 10 1
Ac     1.47025160686806     1.47025160686806     1.47025160686806
Ac     4.41075482060419     4.41075482060419     1.47025160686806
Ac     4.41075482060419     1.47025160686806     4.41075482060419
Ac     1.47025160686806     4.41075482060419     4.41075482060419
O     2.94050321373613     0.00000000000000     0.00000000000000
O     0.00000000000000     2.94050321373613     0.00000000000000
O     0.00000000000000     0.00000000000000     2.94050321373613
O     2.94050321373613     2.94050321373613     0.00000000000000
O     2.94050321373613     0.00000000000000     2.94050321373613
O     0.00000000000000     2.94050321373613     2.94050321373613