CRYSTAL
# Primitive lattice vectors in Angstrom
PRIMVEC
 4.58797065705104 0.00000000000000 0.00000000000000
 -0.00000000000000 4.58797065705104 0.00000000000000
 0.00000000000000 0.00000000000000 4.58797065705104
# Cartesian coordinates in Angstrom.
PRIMCOORD
 4 1
Ac     0.00000000000000     0.00000000000000     0.00000000000000
O     2.29398532852552     0.00000000000000     0.00000000000000
O     0.00000000000000     2.29398532852552     0.00000000000000
O     0.00000000000000     0.00000000000000     2.29398532852552