CRYSTAL
# Primitive lattice vectors in Angstrom
PRIMVEC
 5.93028616106333 0.00000000000000 0.00000000000000
 -0.00000000000000 5.93028616106333 0.00000000000000
 0.00000000000000 0.00000000000000 5.93028616106333
# Cartesian coordinates in Angstrom.
PRIMCOORD
 14 1
Ac     0.00000000000000     0.00000000000000     0.00000000000000
Ac     2.96514308053167     2.96514308053167     0.00000000000000
Ac     2.96514308053167     0.00000000000000     2.96514308053167
Ac     0.00000000000000     2.96514308053167     2.96514308053167
O     2.96514308053167     0.00000000000000     0.00000000000000
O     0.00000000000000     2.96514308053167     0.00000000000000
O     0.00000000000000     0.00000000000000     2.96514308053167
O     2.96514308053167     2.96514308053167     2.96514308053167
O     4.44771462079750     4.44771462079750     1.48257154026583
O     4.44771462079750     1.48257154026583     4.44771462079750
O     1.48257154026583     4.44771462079750     4.44771462079750
O     4.44771462079750     1.48257154026583     1.48257154026583
O     1.48257154026583     4.44771462079750     1.48257154026583
O     1.48257154026583     1.48257154026583     4.44771462079750