CRYSTAL
# Primitive lattice vectors in Angstrom
PRIMVEC
 5.08745898892064 0.00000000000000 0.00000000000000
 -0.00000000000000 5.08745898892064 0.00000000000000
 0.00000000000000 0.00000000000000 5.08745898892064
# Cartesian coordinates in Angstrom.
PRIMCOORD
 10 1
Ag     1.27186474723016     1.27186474723016     1.27186474723016
Ag     3.81559424169048     3.81559424169048     1.27186474723016
Ag     3.81559424169048     1.27186474723016     3.81559424169048
Ag     1.27186474723016     3.81559424169048     3.81559424169048
O     2.54372949446032     0.00000000000000     0.00000000000000
O     0.00000000000000     2.54372949446032     0.00000000000000
O     0.00000000000000     0.00000000000000     2.54372949446032
O     2.54372949446032     2.54372949446032     0.00000000000000
O     2.54372949446032     0.00000000000000     2.54372949446032
O     0.00000000000000     2.54372949446032     2.54372949446032