CRYSTAL
# Primitive lattice vectors in Angstrom
PRIMVEC
 5.31929575306491 0.00000000000000 0.00000000000000
 -0.00000000000000 5.31929575306491 0.00000000000000
 0.00000000000000 0.00000000000000 5.31929575306491
# Cartesian coordinates in Angstrom.
PRIMCOORD
 14 1
Ag     0.00000000000000     0.00000000000000     0.00000000000000
Ag     2.65964787653246     2.65964787653246     0.00000000000000
Ag     2.65964787653246     0.00000000000000     2.65964787653246
Ag     0.00000000000000     2.65964787653246     2.65964787653246
O     2.65964787653246     0.00000000000000     0.00000000000000
O     0.00000000000000     2.65964787653246     0.00000000000000
O     0.00000000000000     0.00000000000000     2.65964787653246
O     2.65964787653246     2.65964787653246     2.65964787653246
O     3.98947181479869     3.98947181479869     1.32982393826623
O     3.98947181479869     1.32982393826623     3.98947181479869
O     1.32982393826623     3.98947181479869     3.98947181479869
O     3.98947181479869     1.32982393826623     1.32982393826623
O     1.32982393826623     3.98947181479869     1.32982393826623
O     1.32982393826623     1.32982393826623     3.98947181479869