CRYSTAL
# Primitive lattice vectors in Angstrom
PRIMVEC
 4.02591565695885 0.00000000000000 0.00000000000000
 -0.00000000000000 4.02591565695885 0.00000000000000
 0.00000000000000 0.00000000000000 4.02591565695885
# Cartesian coordinates in Angstrom.
PRIMCOORD
 4 1
Ag     0.00000000000000     0.00000000000000     0.00000000000000
O     2.01295782847942     0.00000000000000     0.00000000000000
O     0.00000000000000     2.01295782847942     0.00000000000000
O     0.00000000000000     0.00000000000000     2.01295782847942