CRYSTAL
# Primitive lattice vectors in Angstrom
PRIMVEC
 5.01914943637654 0.00000000000000 0.00000000000000
 -0.00000000000000 5.01914943637654 0.00000000000000
 0.00000000000000 0.00000000000000 5.01914943637654
# Cartesian coordinates in Angstrom.
PRIMCOORD
 14 1
Al     0.00000000000000     0.00000000000000     0.00000000000000
Al     2.50957471818827     2.50957471818827     0.00000000000000
Al     2.50957471818827     0.00000000000000     2.50957471818827
Al     0.00000000000000     2.50957471818827     2.50957471818827
O     2.50957471818827     0.00000000000000     0.00000000000000
O     0.00000000000000     2.50957471818827     0.00000000000000
O     0.00000000000000     0.00000000000000     2.50957471818827
O     2.50957471818827     2.50957471818827     2.50957471818827
O     3.76436207728241     3.76436207728241     1.25478735909414
O     3.76436207728241     1.25478735909414     3.76436207728241
O     1.25478735909414     3.76436207728241     3.76436207728241
O     3.76436207728241     1.25478735909414     1.25478735909414
O     1.25478735909414     3.76436207728241     1.25478735909414
O     1.25478735909414     1.25478735909414     3.76436207728241