CRYSTAL
# Primitive lattice vectors in Angstrom
PRIMVEC
 4.61772588025057 0.00000000000000 0.00000000000000
 -0.00000000000000 4.61772588025057 0.00000000000000
 0.00000000000000 0.00000000000000 4.61772588025057
# Cartesian coordinates in Angstrom.
PRIMCOORD
 10 1
Al     1.15443147006264     1.15443147006264     1.15443147006264
Al     3.46329441018793     3.46329441018793     1.15443147006264
Al     3.46329441018793     1.15443147006264     3.46329441018793
Al     1.15443147006264     3.46329441018793     3.46329441018793
O     2.30886294012529     0.00000000000000     0.00000000000000
O     0.00000000000000     2.30886294012529     0.00000000000000
O     0.00000000000000     0.00000000000000     2.30886294012529
O     2.30886294012529     2.30886294012529     0.00000000000000
O     2.30886294012529     0.00000000000000     2.30886294012529
O     0.00000000000000     2.30886294012529     2.30886294012529