CRYSTAL
# Primitive lattice vectors in Angstrom
PRIMVEC
 3.68327781496844 0.00000000000000 0.00000000000000
 -0.00000000000000 3.68327781496844 0.00000000000000
 0.00000000000000 0.00000000000000 3.68327781496844
# Cartesian coordinates in Angstrom.
PRIMCOORD
 4 1
Al     0.00000000000000     0.00000000000000     0.00000000000000
O     1.84163890748422     0.00000000000000     0.00000000000000
O     0.00000000000000     1.84163890748422     0.00000000000000
O     0.00000000000000     0.00000000000000     1.84163890748422