CRYSTAL
# Primitive lattice vectors in Angstrom
PRIMVEC
 4.08354573797037 0.00000000000000 0.00000000000000
 -0.00000000000000 4.08354573797037 0.00000000000000
 0.00000000000000 0.00000000000000 4.08354573797037
# Cartesian coordinates in Angstrom.
PRIMCOORD
 4 1
Am     0.00000000000000     0.00000000000000     0.00000000000000
O     2.04177286898518     0.00000000000000     0.00000000000000
O     0.00000000000000     2.04177286898518     0.00000000000000
O     0.00000000000000     0.00000000000000     2.04177286898518