CRYSTAL
# Primitive lattice vectors in Angstrom
PRIMVEC
 5.27345465242817 0.00000000000000 0.00000000000000
 -0.00000000000000 5.27345465242817 0.00000000000000
 0.00000000000000 0.00000000000000 5.27345465242817
# Cartesian coordinates in Angstrom.
PRIMCOORD
 10 1
Am     1.31836366310704     1.31836366310704     1.31836366310704
Am     3.95509098932113     3.95509098932113     1.31836366310704
Am     3.95509098932113     1.31836366310704     3.95509098932113
Am     1.31836366310704     3.95509098932113     3.95509098932113
O     2.63672732621409     0.00000000000000     0.00000000000000
O     0.00000000000000     2.63672732621409     0.00000000000000
O     0.00000000000000     0.00000000000000     2.63672732621409
O     2.63672732621409     2.63672732621409     0.00000000000000
O     2.63672732621409     0.00000000000000     2.63672732621409
O     0.00000000000000     2.63672732621409     2.63672732621409