CRYSTAL
# Primitive lattice vectors in Angstrom
PRIMVEC
 5.31230607736278 0.00000000000000 0.00000000000000
 -0.00000000000000 5.31230607736278 0.00000000000000
 0.00000000000000 0.00000000000000 5.31230607736278
# Cartesian coordinates in Angstrom.
PRIMCOORD
 14 1
Am     0.00000000000000     0.00000000000000     0.00000000000000
Am     2.65615303868139     2.65615303868139     0.00000000000000
Am     2.65615303868139     0.00000000000000     2.65615303868139
Am     0.00000000000000     2.65615303868139     2.65615303868139
O     2.65615303868139     0.00000000000000     0.00000000000000
O     0.00000000000000     2.65615303868139     0.00000000000000
O     0.00000000000000     0.00000000000000     2.65615303868139
O     2.65615303868139     2.65615303868139     2.65615303868139
O     3.98422955802208     3.98422955802208     1.32807651934069
O     3.98422955802208     1.32807651934069     3.98422955802208
O     1.32807651934069     3.98422955802208     3.98422955802208
O     3.98422955802208     1.32807651934069     1.32807651934069
O     1.32807651934069     3.98422955802208     1.32807651934069
O     1.32807651934069     1.32807651934069     3.98422955802208