CRYSTAL
# Primitive lattice vectors in Angstrom
PRIMVEC
 4.15156776084723 0.00000000000000 0.00000000000000
 -0.00000000000000 4.15156776084723 0.00000000000000
 0.00000000000000 0.00000000000000 4.15156776084723
# Cartesian coordinates in Angstrom.
PRIMCOORD
 4 1
Ar     0.00000000000000     0.00000000000000     0.00000000000000
O     2.07578388042361     0.00000000000000     0.00000000000000
O     0.00000000000000     2.07578388042361     0.00000000000000
O     0.00000000000000     0.00000000000000     2.07578388042361