CRYSTAL
# Primitive lattice vectors in Angstrom
PRIMVEC
 5.72489297126818 0.00000000000000 0.00000000000000
 -0.00000000000000 5.72489297126818 0.00000000000000
 0.00000000000000 0.00000000000000 5.72489297126818
# Cartesian coordinates in Angstrom.
PRIMCOORD
 14 1
Ar     0.00000000000000     0.00000000000000     0.00000000000000
Ar     2.86244648563409     2.86244648563409     0.00000000000000
Ar     2.86244648563409     0.00000000000000     2.86244648563409
Ar     0.00000000000000     2.86244648563409     2.86244648563409
O     2.86244648563409     0.00000000000000     0.00000000000000
O     0.00000000000000     2.86244648563409     0.00000000000000
O     0.00000000000000     0.00000000000000     2.86244648563409
O     2.86244648563409     2.86244648563409     2.86244648563409
O     4.29366972845114     4.29366972845114     1.43122324281705
O     4.29366972845114     1.43122324281705     4.29366972845114
O     1.43122324281705     4.29366972845114     4.29366972845114
O     4.29366972845114     1.43122324281705     1.43122324281705
O     1.43122324281705     4.29366972845114     1.43122324281705
O     1.43122324281705     1.43122324281705     4.29366972845114