CRYSTAL
# Primitive lattice vectors in Angstrom
PRIMVEC
 6.02279452753538 0.00000000000000 0.00000000000000
 -0.00000000000000 6.02279452753538 0.00000000000000
 0.00000000000000 0.00000000000000 6.02279452753538
# Cartesian coordinates in Angstrom.
PRIMCOORD
 10 1
Ar     1.50569863188384     1.50569863188384     1.50569863188384
Ar     4.51709589565154     4.51709589565154     1.50569863188384
Ar     4.51709589565154     1.50569863188384     4.51709589565154
Ar     1.50569863188384     4.51709589565154     4.51709589565154
O     3.01139726376770     0.00000000000000     0.00000000000000
O     0.00000000000000     3.01139726376770     0.00000000000000
O     0.00000000000000     0.00000000000000     3.01139726376770
O     3.01139726376770     3.01139726376770     0.00000000000000
O     3.01139726376770     0.00000000000000     3.01139726376770
O     0.00000000000000     3.01139726376770     3.01139726376770