CRYSTAL
# Primitive lattice vectors in Angstrom
PRIMVEC
 5.24764238857335 0.00000000000000 0.00000000000000
 -0.00000000000000 5.24764238857335 0.00000000000000
 0.00000000000000 0.00000000000000 5.24764238857335
# Cartesian coordinates in Angstrom.
PRIMCOORD
 14 1
As     0.00000000000000     0.00000000000000     0.00000000000000
As     2.62382119428667     2.62382119428667     0.00000000000000
As     2.62382119428667     0.00000000000000     2.62382119428667
As     0.00000000000000     2.62382119428667     2.62382119428667
O     2.62382119428667     0.00000000000000     0.00000000000000
O     0.00000000000000     2.62382119428667     0.00000000000000
O     0.00000000000000     0.00000000000000     2.62382119428667
O     2.62382119428667     2.62382119428667     2.62382119428667
O     3.93573179143001     3.93573179143001     1.31191059714334
O     3.93573179143001     1.31191059714334     3.93573179143001
O     1.31191059714334     3.93573179143001     3.93573179143001
O     3.93573179143001     1.31191059714334     1.31191059714334
O     1.31191059714334     3.93573179143001     1.31191059714334
O     1.31191059714334     1.31191059714334     3.93573179143001