CRYSTAL
# Primitive lattice vectors in Angstrom
PRIMVEC
 5.07401729385727 0.00000000000000 0.00000000000000
 -0.00000000000000 5.07401729385727 0.00000000000000
 0.00000000000000 0.00000000000000 5.07401729385727
# Cartesian coordinates in Angstrom.
PRIMCOORD
 10 1
As     1.26850432346431     1.26850432346431     1.26850432346431
As     3.80551297039295     3.80551297039295     1.26850432346431
As     3.80551297039295     1.26850432346431     3.80551297039295
As     1.26850432346431     3.80551297039295     3.80551297039295
O     2.53700864692864     0.00000000000000     0.00000000000000
O     0.00000000000000     2.53700864692864     0.00000000000000
O     0.00000000000000     0.00000000000000     2.53700864692864
O     2.53700864692864     2.53700864692864     0.00000000000000
O     2.53700864692864     0.00000000000000     2.53700864692864
O     0.00000000000000     2.53700864692864     2.53700864692864