CRYSTAL
# Primitive lattice vectors in Angstrom
PRIMVEC
 3.61596339929557 0.00000000000000 0.00000000000000
 -0.00000000000000 3.61596339929557 0.00000000000000
 0.00000000000000 0.00000000000000 3.61596339929557
# Cartesian coordinates in Angstrom.
PRIMCOORD
 4 1
As     0.00000000000000     0.00000000000000     0.00000000000000
O     1.80798169964778     0.00000000000000     0.00000000000000
O     0.00000000000000     1.80798169964778     0.00000000000000
O     0.00000000000000     0.00000000000000     1.80798169964778