CRYSTAL
# Primitive lattice vectors in Angstrom
PRIMVEC
 5.62106329305707 0.00000000000000 0.00000000000000
 -0.00000000000000 5.62106329305707 0.00000000000000
 0.00000000000000 0.00000000000000 5.62106329305707
# Cartesian coordinates in Angstrom.
PRIMCOORD
 10 1
At     1.40526582326426     1.40526582326426     1.40526582326426
At     4.21579746979280     4.21579746979280     1.40526582326426
At     4.21579746979280     1.40526582326426     4.21579746979280
At     1.40526582326426     4.21579746979280     4.21579746979280
O     2.81053164652854     0.00000000000000     0.00000000000000
O     0.00000000000000     2.81053164652854     0.00000000000000
O     0.00000000000000     0.00000000000000     2.81053164652854
O     2.81053164652854     2.81053164652854     0.00000000000000
O     2.81053164652854     0.00000000000000     2.81053164652854
O     0.00000000000000     2.81053164652854     2.81053164652854