CRYSTAL
# Primitive lattice vectors in Angstrom
PRIMVEC
 5.53555072007129 0.00000000000000 0.00000000000000
 -0.00000000000000 5.53555072007129 0.00000000000000
 0.00000000000000 0.00000000000000 5.53555072007129
# Cartesian coordinates in Angstrom.
PRIMCOORD
 14 1
At     0.00000000000000     0.00000000000000     0.00000000000000
At     2.76777536003564     2.76777536003564     0.00000000000000
At     2.76777536003564     0.00000000000000     2.76777536003564
At     0.00000000000000     2.76777536003564     2.76777536003564
O     2.76777536003564     0.00000000000000     0.00000000000000
O     0.00000000000000     2.76777536003564     0.00000000000000
O     0.00000000000000     0.00000000000000     2.76777536003564
O     2.76777536003564     2.76777536003564     2.76777536003564
O     4.15166304005346     4.15166304005346     1.38388768001782
O     4.15166304005346     1.38388768001782     4.15166304005346
O     1.38388768001782     4.15166304005346     4.15166304005346
O     4.15166304005346     1.38388768001782     1.38388768001782
O     1.38388768001782     4.15166304005346     1.38388768001782
O     1.38388768001782     1.38388768001782     4.15166304005346