CRYSTAL
# Primitive lattice vectors in Angstrom
PRIMVEC
 4.16247604026773 0.00000000000000 0.00000000000000
 -0.00000000000000 4.16247604026773 0.00000000000000
 0.00000000000000 0.00000000000000 4.16247604026773
# Cartesian coordinates in Angstrom.
PRIMCOORD
 4 1
At     0.00000000000000     0.00000000000000     0.00000000000000
O     2.08123802013386     0.00000000000000     0.00000000000000
O     0.00000000000000     2.08123802013386     0.00000000000000
O     0.00000000000000     0.00000000000000     2.08123802013386