CRYSTAL
# Primitive lattice vectors in Angstrom
PRIMVEC
 5.12332442562333 0.00000000000000 0.00000000000000
 -0.00000000000000 5.12332442562333 0.00000000000000
 0.00000000000000 0.00000000000000 5.12332442562333
# Cartesian coordinates in Angstrom.
PRIMCOORD
 10 1
Au     1.28083110640583     1.28083110640583     1.28083110640583
Au     3.84249331921750     3.84249331921750     1.28083110640583
Au     3.84249331921750     1.28083110640583     3.84249331921750
Au     1.28083110640583     3.84249331921750     3.84249331921750
O     2.56166221281167     0.00000000000000     0.00000000000000
O     0.00000000000000     2.56166221281167     0.00000000000000
O     0.00000000000000     0.00000000000000     2.56166221281167
O     2.56166221281167     2.56166221281167     0.00000000000000
O     2.56166221281167     0.00000000000000     2.56166221281167
O     0.00000000000000     2.56166221281167     2.56166221281167