CRYSTAL
# Primitive lattice vectors in Angstrom
PRIMVEC
 5.32320754771235 0.00000000000000 0.00000000000000
 -0.00000000000000 5.32320754771235 0.00000000000000
 0.00000000000000 0.00000000000000 5.32320754771235
# Cartesian coordinates in Angstrom.
PRIMCOORD
 14 1
Au     0.00000000000000     0.00000000000000     0.00000000000000
Au     2.66160377385618     2.66160377385618     0.00000000000000
Au     2.66160377385618     0.00000000000000     2.66160377385618
Au     0.00000000000000     2.66160377385618     2.66160377385618
O     2.66160377385618     0.00000000000000     0.00000000000000
O     0.00000000000000     2.66160377385618     0.00000000000000
O     0.00000000000000     0.00000000000000     2.66160377385618
O     2.66160377385618     2.66160377385618     2.66160377385618
O     3.99240566078427     3.99240566078427     1.33080188692809
O     3.99240566078427     1.33080188692809     3.99240566078427
O     1.33080188692809     3.99240566078427     3.99240566078427
O     3.99240566078427     1.33080188692809     1.33080188692809
O     1.33080188692809     3.99240566078427     1.33080188692809
O     1.33080188692809     1.33080188692809     3.99240566078427