CRYSTAL
# Primitive lattice vectors in Angstrom
PRIMVEC
 3.99561734544296 0.00000000000000 0.00000000000000
 -0.00000000000000 3.99561734544296 0.00000000000000
 0.00000000000000 0.00000000000000 3.99561734544296
# Cartesian coordinates in Angstrom.
PRIMCOORD
 4 1
Au     0.00000000000000     0.00000000000000     0.00000000000000
O     1.99780867272148     0.00000000000000     0.00000000000000
O     0.00000000000000     1.99780867272148     0.00000000000000
O     0.00000000000000     0.00000000000000     1.99780867272148