CRYSTAL
# Primitive lattice vectors in Angstrom
PRIMVEC
 4.77562711064579 0.00000000000000 0.00000000000000
 -0.00000000000000 4.77562711064579 0.00000000000000
 0.00000000000000 0.00000000000000 4.77562711064579
# Cartesian coordinates in Angstrom.
PRIMCOORD
 14 1
B     0.00000000000000     0.00000000000000     0.00000000000000
B     2.38781355532290     2.38781355532290     0.00000000000000
B     2.38781355532290     0.00000000000000     2.38781355532290
B     0.00000000000000     2.38781355532290     2.38781355532290
O     2.38781355532290     0.00000000000000     0.00000000000000
O     0.00000000000000     2.38781355532290     0.00000000000000
O     0.00000000000000     0.00000000000000     2.38781355532290
O     2.38781355532290     2.38781355532290     2.38781355532290
O     3.58172033298435     3.58172033298435     1.19390677766145
O     3.58172033298435     1.19390677766145     3.58172033298435
O     1.19390677766145     3.58172033298435     3.58172033298435
O     3.58172033298435     1.19390677766145     1.19390677766145
O     1.19390677766145     3.58172033298435     1.19390677766145
O     1.19390677766145     1.19390677766145     3.58172033298435