CRYSTAL
# Primitive lattice vectors in Angstrom
PRIMVEC
 4.16001549870894 0.00000000000000 0.00000000000000
 -0.00000000000000 4.16001549870894 0.00000000000000
 0.00000000000000 0.00000000000000 4.16001549870894
# Cartesian coordinates in Angstrom.
PRIMCOORD
 10 1
B     1.04000387467723     1.04000387467723     1.04000387467723
B     3.12001162403171     3.12001162403171     1.04000387467723
B     3.12001162403171     1.04000387467723     3.12001162403171
B     1.04000387467723     3.12001162403171     3.12001162403171
O     2.08000774935447     0.00000000000000     0.00000000000000
O     0.00000000000000     2.08000774935447     0.00000000000000
O     0.00000000000000     0.00000000000000     2.08000774935447
O     2.08000774935447     2.08000774935447     0.00000000000000
O     2.08000774935447     0.00000000000000     2.08000774935447
O     0.00000000000000     2.08000774935447     2.08000774935447