CRYSTAL
# Primitive lattice vectors in Angstrom
PRIMVEC
 3.23111949205832 0.00000000000000 0.00000000000000
 -0.00000000000000 3.23111949205832 0.00000000000000
 0.00000000000000 0.00000000000000 3.23111949205832
# Cartesian coordinates in Angstrom.
PRIMCOORD
 4 1
B     0.00000000000000     0.00000000000000     0.00000000000000
O     1.61555974602916     0.00000000000000     0.00000000000000
O     0.00000000000000     1.61555974602916     0.00000000000000
O     0.00000000000000     0.00000000000000     1.61555974602916