CRYSTAL
# Primitive lattice vectors in Angstrom
PRIMVEC
 4.42536578941922 0.00000000000000 0.00000000000000
 -0.00000000000000 4.42536578941922 0.00000000000000
 0.00000000000000 0.00000000000000 4.42536578941922
# Cartesian coordinates in Angstrom.
PRIMCOORD
 4 1
Ba     0.00000000000000     0.00000000000000     0.00000000000000
O     2.21268289470960     0.00000000000000     0.00000000000000
O     0.00000000000000     2.21268289470960     0.00000000000000
O     0.00000000000000     0.00000000000000     2.21268289470960