CRYSTAL
# Primitive lattice vectors in Angstrom
PRIMVEC
 6.16288161960384 0.00000000000000 0.00000000000000
 -0.00000000000000 6.16288161960384 0.00000000000000
 0.00000000000000 0.00000000000000 6.16288161960384
# Cartesian coordinates in Angstrom.
PRIMCOORD
 10 1
Ba     1.54072040490096     1.54072040490096     1.54072040490096
Ba     4.62216121470288     4.62216121470288     1.54072040490096
Ba     4.62216121470288     1.54072040490096     4.62216121470288
Ba     1.54072040490096     4.62216121470288     4.62216121470288
O     3.08144080980192     0.00000000000000     0.00000000000000
O     0.00000000000000     3.08144080980192     0.00000000000000
O     0.00000000000000     0.00000000000000     3.08144080980192
O     3.08144080980192     3.08144080980192     0.00000000000000
O     3.08144080980192     0.00000000000000     3.08144080980192
O     0.00000000000000     3.08144080980192     3.08144080980192