CRYSTAL
# Primitive lattice vectors in Angstrom
PRIMVEC
 6.11714488674844 0.00000000000000 0.00000000000000
 -0.00000000000000 6.11714488674844 0.00000000000000
 0.00000000000000 0.00000000000000 6.11714488674844
# Cartesian coordinates in Angstrom.
PRIMCOORD
 14 1
Ba     0.00000000000000     0.00000000000000     0.00000000000000
Ba     3.05857244337422     3.05857244337422     0.00000000000000
Ba     3.05857244337422     0.00000000000000     3.05857244337422
Ba     0.00000000000000     3.05857244337422     3.05857244337422
O     3.05857244337422     0.00000000000000     0.00000000000000
O     0.00000000000000     3.05857244337422     0.00000000000000
O     0.00000000000000     0.00000000000000     3.05857244337422
O     3.05857244337422     3.05857244337422     3.05857244337422
O     4.58785866506133     4.58785866506133     1.52928622168711
O     4.58785866506133     1.52928622168711     4.58785866506133
O     1.52928622168711     4.58785866506133     4.58785866506133
O     4.58785866506133     1.52928622168711     1.52928622168711
O     1.52928622168711     4.58785866506133     1.52928622168711
O     1.52928622168711     1.52928622168711     4.58785866506133