CRYSTAL
# Primitive lattice vectors in Angstrom
PRIMVEC
 4.86387242471850 0.00000000000000 0.00000000000000
 -0.00000000000000 4.86387242471850 0.00000000000000
 0.00000000000000 0.00000000000000 4.86387242471850
# Cartesian coordinates in Angstrom.
PRIMCOORD
 14 1
Be     0.00000000000000     0.00000000000000     0.00000000000000
Be     2.43193621235925     2.43193621235925     0.00000000000000
Be     2.43193621235925     0.00000000000000     2.43193621235925
Be     0.00000000000000     2.43193621235925     2.43193621235925
O     2.43193621235925     0.00000000000000     0.00000000000000
O     0.00000000000000     2.43193621235925     0.00000000000000
O     0.00000000000000     0.00000000000000     2.43193621235925
O     2.43193621235925     2.43193621235925     2.43193621235925
O     3.64790431853888     3.64790431853888     1.21596810617963
O     3.64790431853888     1.21596810617963     3.64790431853888
O     1.21596810617963     3.64790431853888     3.64790431853888
O     3.64790431853888     1.21596810617963     1.21596810617963
O     1.21596810617963     3.64790431853888     1.21596810617963
O     1.21596810617963     1.21596810617963     3.64790431853888