CRYSTAL
# Primitive lattice vectors in Angstrom
PRIMVEC
 4.27120816562960 0.00000000000000 0.00000000000000
 -0.00000000000000 4.27120816562960 0.00000000000000
 0.00000000000000 0.00000000000000 4.27120816562960
# Cartesian coordinates in Angstrom.
PRIMCOORD
 10 1
Be     1.06780204140740     1.06780204140740     1.06780204140740
Be     3.20340612422220     3.20340612422220     1.06780204140740
Be     3.20340612422220     1.06780204140740     3.20340612422220
Be     1.06780204140740     3.20340612422220     3.20340612422220
O     2.13560408281481     0.00000000000000     0.00000000000000
O     0.00000000000000     2.13560408281481     0.00000000000000
O     0.00000000000000     0.00000000000000     2.13560408281481
O     2.13560408281481     2.13560408281481     0.00000000000000
O     2.13560408281481     0.00000000000000     2.13560408281481
O     0.00000000000000     2.13560408281481     2.13560408281481