CRYSTAL
# Primitive lattice vectors in Angstrom
PRIMVEC
 4.21240358502556 0.00000000000000 0.00000000000000
 -0.00000000000000 4.21240358502556 0.00000000000000
 0.00000000000000 0.00000000000000 4.21240358502556
# Cartesian coordinates in Angstrom.
PRIMCOORD
 4 1
Bi     0.00000000000000     0.00000000000000     0.00000000000000
O     2.10620179251277     0.00000000000000     0.00000000000000
O     0.00000000000000     2.10620179251277     0.00000000000000
O     0.00000000000000     0.00000000000000     2.10620179251277