CRYSTAL
# Primitive lattice vectors in Angstrom
PRIMVEC
 5.58998674170691 0.00000000000000 0.00000000000000
 -0.00000000000000 5.58998674170691 0.00000000000000
 0.00000000000000 0.00000000000000 5.58998674170691
# Cartesian coordinates in Angstrom.
PRIMCOORD
 10 1
Bi     1.39749668542672     1.39749668542672     1.39749668542672
Bi     4.19249005628018     4.19249005628018     1.39749668542672
Bi     4.19249005628018     1.39749668542672     4.19249005628018
Bi     1.39749668542672     4.19249005628018     4.19249005628018
O     2.79499337085346     0.00000000000000     0.00000000000000
O     0.00000000000000     2.79499337085346     0.00000000000000
O     0.00000000000000     0.00000000000000     2.79499337085346
O     2.79499337085346     2.79499337085346     0.00000000000000
O     2.79499337085346     0.00000000000000     2.79499337085346
O     0.00000000000000     2.79499337085346     2.79499337085346