CRYSTAL
# Primitive lattice vectors in Angstrom
PRIMVEC
 5.63401313113748 0.00000000000000 0.00000000000000
 -0.00000000000000 5.63401313113748 0.00000000000000
 0.00000000000000 0.00000000000000 5.63401313113748
# Cartesian coordinates in Angstrom.
PRIMCOORD
 14 1
Bi     0.00000000000000     0.00000000000000     0.00000000000000
Bi     2.81700656556874     2.81700656556874     0.00000000000000
Bi     2.81700656556874     0.00000000000000     2.81700656556874
Bi     0.00000000000000     2.81700656556874     2.81700656556874
O     2.81700656556874     0.00000000000000     0.00000000000000
O     0.00000000000000     2.81700656556874     0.00000000000000
O     0.00000000000000     0.00000000000000     2.81700656556874
O     2.81700656556874     2.81700656556874     2.81700656556874
O     4.22550984835311     4.22550984835311     1.40850328278437
O     4.22550984835311     1.40850328278437     4.22550984835311
O     1.40850328278437     4.22550984835311     4.22550984835311
O     4.22550984835311     1.40850328278437     1.40850328278437
O     1.40850328278437     4.22550984835311     1.40850328278437
O     1.40850328278437     1.40850328278437     4.22550984835311