CRYSTAL
# Primitive lattice vectors in Angstrom
PRIMVEC
 4.07658860084412 0.00000000000000 0.00000000000000
 -0.00000000000000 4.07658860084412 0.00000000000000
 0.00000000000000 0.00000000000000 4.07658860084412
# Cartesian coordinates in Angstrom.
PRIMCOORD
 4 1
Bk     0.00000000000000     0.00000000000000     0.00000000000000
O     2.03829430042205     0.00000000000000     0.00000000000000
O     0.00000000000000     2.03829430042205     0.00000000000000
O     0.00000000000000     0.00000000000000     2.03829430042205