CRYSTAL
# Primitive lattice vectors in Angstrom
PRIMVEC
 5.33006068254936 0.00000000000000 0.00000000000000
 -0.00000000000000 5.33006068254936 0.00000000000000
 0.00000000000000 0.00000000000000 5.33006068254936
# Cartesian coordinates in Angstrom.
PRIMCOORD
 14 1
Bk     0.00000000000000     0.00000000000000     0.00000000000000
Bk     2.66503034127468     2.66503034127468     0.00000000000000
Bk     2.66503034127468     0.00000000000000     2.66503034127468
Bk     0.00000000000000     2.66503034127468     2.66503034127468
O     2.66503034127468     0.00000000000000     0.00000000000000
O     0.00000000000000     2.66503034127468     0.00000000000000
O     0.00000000000000     0.00000000000000     2.66503034127468
O     2.66503034127468     2.66503034127468     2.66503034127468
O     3.99754551191202     3.99754551191202     1.33251517063734
O     3.99754551191202     1.33251517063734     3.99754551191202
O     1.33251517063734     3.99754551191202     3.99754551191202
O     3.99754551191202     1.33251517063734     1.33251517063734
O     1.33251517063734     3.99754551191202     1.33251517063734
O     1.33251517063734     1.33251517063734     3.99754551191202