CRYSTAL
# Primitive lattice vectors in Angstrom
PRIMVEC
 5.27946843993393 0.00000000000000 0.00000000000000
 -0.00000000000000 5.27946843993393 0.00000000000000
 0.00000000000000 0.00000000000000 5.27946843993393
# Cartesian coordinates in Angstrom.
PRIMCOORD
 10 1
Bk     1.31986710998348     1.31986710998348     1.31986710998348
Bk     3.95960132995045     3.95960132995045     1.31986710998348
Bk     3.95960132995045     1.31986710998348     3.95960132995045
Bk     1.31986710998348     3.95960132995045     3.95960132995045
O     2.63973421996697     0.00000000000000     0.00000000000000
O     0.00000000000000     2.63973421996697     0.00000000000000
O     0.00000000000000     0.00000000000000     2.63973421996697
O     2.63973421996697     2.63973421996697     0.00000000000000
O     2.63973421996697     0.00000000000000     2.63973421996697
O     0.00000000000000     2.63973421996697     2.63973421996697