CRYSTAL
# Primitive lattice vectors in Angstrom
PRIMVEC
 5.28621010334178 0.00000000000000 0.00000000000000
 -0.00000000000000 5.28621010334178 0.00000000000000
 0.00000000000000 0.00000000000000 5.28621010334178
# Cartesian coordinates in Angstrom.
PRIMCOORD
 10 1
Br     1.32155252583544     1.32155252583544     1.32155252583544
Br     3.96465757750634     3.96465757750634     1.32155252583544
Br     3.96465757750634     1.32155252583544     3.96465757750634
Br     1.32155252583544     3.96465757750634     3.96465757750634
O     2.64310505167089     0.00000000000000     0.00000000000000
O     0.00000000000000     2.64310505167089     0.00000000000000
O     0.00000000000000     0.00000000000000     2.64310505167089
O     2.64310505167089     2.64310505167089     0.00000000000000
O     2.64310505167089     0.00000000000000     2.64310505167089
O     0.00000000000000     2.64310505167089     2.64310505167089