CRYSTAL
# Primitive lattice vectors in Angstrom
PRIMVEC
 5.39301307403111 0.00000000000000 0.00000000000000
 -0.00000000000000 5.39301307403111 0.00000000000000
 0.00000000000000 0.00000000000000 5.39301307403111
# Cartesian coordinates in Angstrom.
PRIMCOORD
 14 1
Br     0.00000000000000     0.00000000000000     0.00000000000000
Br     2.69650653701556     2.69650653701556     0.00000000000000
Br     2.69650653701556     0.00000000000000     2.69650653701556
Br     0.00000000000000     2.69650653701556     2.69650653701556
O     2.69650653701556     0.00000000000000     0.00000000000000
O     0.00000000000000     2.69650653701556     0.00000000000000
O     0.00000000000000     0.00000000000000     2.69650653701556
O     2.69650653701556     2.69650653701556     2.69650653701556
O     4.04475980552334     4.04475980552334     1.34825326850778
O     4.04475980552334     1.34825326850778     4.04475980552334
O     1.34825326850778     4.04475980552334     4.04475980552334
O     4.04475980552334     1.34825326850778     1.34825326850778
O     1.34825326850778     4.04475980552334     1.34825326850778
O     1.34825326850778     1.34825326850778     4.04475980552334