CRYSTAL
# Primitive lattice vectors in Angstrom
PRIMVEC
 3.88309901057124 0.00000000000000 0.00000000000000
 -0.00000000000000 3.88309901057124 0.00000000000000
 0.00000000000000 0.00000000000000 3.88309901057124
# Cartesian coordinates in Angstrom.
PRIMCOORD
 4 1
Br     0.00000000000000     0.00000000000000     0.00000000000000
O     1.94154950528561     0.00000000000000     0.00000000000000
O     0.00000000000000     1.94154950528561     0.00000000000000
O     0.00000000000000     0.00000000000000     1.94154950528561