CRYSTAL
# Primitive lattice vectors in Angstrom
PRIMVEC
 4.39561334138906 0.00000000000000 0.00000000000000
 -0.00000000000000 4.39561334138906 0.00000000000000
 0.00000000000000 0.00000000000000 4.39561334138906
# Cartesian coordinates in Angstrom.
PRIMCOORD
 10 1
C     1.09890333534726     1.09890333534726     1.09890333534726
C     3.29671000604180     3.29671000604180     1.09890333534726
C     3.29671000604180     1.09890333534726     3.29671000604180
C     1.09890333534726     3.29671000604180     3.29671000604180
O     2.19780667069453     0.00000000000000     0.00000000000000
O     0.00000000000000     2.19780667069453     0.00000000000000
O     0.00000000000000     0.00000000000000     2.19780667069453
O     2.19780667069453     2.19780667069453     0.00000000000000
O     2.19780667069453     0.00000000000000     2.19780667069453
O     0.00000000000000     2.19780667069453     2.19780667069453