CRYSTAL
# Primitive lattice vectors in Angstrom
PRIMVEC
 4.89786985909966 0.00000000000000 0.00000000000000
 -0.00000000000000 4.89786985909966 0.00000000000000
 0.00000000000000 0.00000000000000 4.89786985909966
# Cartesian coordinates in Angstrom.
PRIMCOORD
 14 1
C     0.00000000000000     0.00000000000000     0.00000000000000
C     2.44893492954983     2.44893492954983     0.00000000000000
C     2.44893492954983     0.00000000000000     2.44893492954983
C     0.00000000000000     2.44893492954983     2.44893492954983
O     2.44893492954983     0.00000000000000     0.00000000000000
O     0.00000000000000     2.44893492954983     0.00000000000000
O     0.00000000000000     0.00000000000000     2.44893492954983
O     2.44893492954983     2.44893492954983     2.44893492954983
O     3.67340239432474     3.67340239432474     1.22446746477491
O     3.67340239432474     1.22446746477491     3.67340239432474
O     1.22446746477491     3.67340239432474     3.67340239432474
O     3.67340239432474     1.22446746477491     1.22446746477491
O     1.22446746477491     3.67340239432474     1.22446746477491
O     1.22446746477491     1.22446746477491     3.67340239432474