CRYSTAL
# Primitive lattice vectors in Angstrom
PRIMVEC
 3.20814612255601 0.00000000000000 0.00000000000000
 -0.00000000000000 3.20814612255601 0.00000000000000
 0.00000000000000 0.00000000000000 3.20814612255601
# Cartesian coordinates in Angstrom.
PRIMCOORD
 4 1
C     0.00000000000000     0.00000000000000     0.00000000000000
O     1.60407306127800     0.00000000000000     0.00000000000000
O     0.00000000000000     1.60407306127800     0.00000000000000
O     0.00000000000000     0.00000000000000     1.60407306127800