CRYSTAL
# Primitive lattice vectors in Angstrom
PRIMVEC
 5.53575511738312 0.00000000000000 0.00000000000000
 -0.00000000000000 5.53575511738312 0.00000000000000
 0.00000000000000 0.00000000000000 5.53575511738312
# Cartesian coordinates in Angstrom.
PRIMCOORD
 14 1
Ca     0.00000000000000     0.00000000000000     0.00000000000000
Ca     2.76787755869156     2.76787755869156     0.00000000000000
Ca     2.76787755869156     0.00000000000000     2.76787755869156
Ca     0.00000000000000     2.76787755869156     2.76787755869156
O     2.76787755869156     0.00000000000000     0.00000000000000
O     0.00000000000000     2.76787755869156     0.00000000000000
O     0.00000000000000     0.00000000000000     2.76787755869156
O     2.76787755869156     2.76787755869156     2.76787755869156
O     4.15181633803734     4.15181633803734     1.38393877934578
O     4.15181633803734     1.38393877934578     4.15181633803734
O     1.38393877934578     4.15181633803734     4.15181633803734
O     4.15181633803734     1.38393877934578     1.38393877934578
O     1.38393877934578     4.15181633803734     1.38393877934578
O     1.38393877934578     1.38393877934578     4.15181633803734