CRYSTAL
# Primitive lattice vectors in Angstrom
PRIMVEC
 5.43334088713344 0.00000000000000 0.00000000000000
 -0.00000000000000 5.43334088713344 0.00000000000000
 0.00000000000000 0.00000000000000 5.43334088713344
# Cartesian coordinates in Angstrom.
PRIMCOORD
 10 1
Ca     1.35833522178336     1.35833522178336     1.35833522178336
Ca     4.07500566535008     4.07500566535008     1.35833522178336
Ca     4.07500566535008     1.35833522178336     4.07500566535008
Ca     1.35833522178336     4.07500566535008     4.07500566535008
O     2.71667044356673     0.00000000000000     0.00000000000000
O     0.00000000000000     2.71667044356673     0.00000000000000
O     0.00000000000000     0.00000000000000     2.71667044356673
O     2.71667044356673     2.71667044356673     0.00000000000000
O     2.71667044356673     0.00000000000000     2.71667044356673
O     0.00000000000000     2.71667044356673     2.71667044356673