CRYSTAL
# Primitive lattice vectors in Angstrom
PRIMVEC
 4.57364501411463 0.00000000000000 0.00000000000000
 -0.00000000000000 4.57364501411463 0.00000000000000
 0.00000000000000 0.00000000000000 4.57364501411463
# Cartesian coordinates in Angstrom.
PRIMCOORD
 4 1
Ca     0.00000000000000     0.00000000000000     0.00000000000000
O     2.28682250705731     0.00000000000000     0.00000000000000
O     0.00000000000000     2.28682250705731     0.00000000000000
O     0.00000000000000     0.00000000000000     2.28682250705731