CRYSTAL
# Primitive lattice vectors in Angstrom
PRIMVEC
 4.20216197472759 0.00000000000000 0.00000000000000
 -0.00000000000000 4.20216197472759 0.00000000000000
 0.00000000000000 0.00000000000000 4.20216197472759
# Cartesian coordinates in Angstrom.
PRIMCOORD
 4 1
Cd     0.00000000000000     0.00000000000000     0.00000000000000
O     2.10108098736379     0.00000000000000     0.00000000000000
O     0.00000000000000     2.10108098736379     0.00000000000000
O     0.00000000000000     0.00000000000000     2.10108098736379