CRYSTAL
# Primitive lattice vectors in Angstrom
PRIMVEC
 5.45016219251889 0.00000000000000 0.00000000000000
 -0.00000000000000 5.45016219251889 0.00000000000000
 0.00000000000000 0.00000000000000 5.45016219251889
# Cartesian coordinates in Angstrom.
PRIMCOORD
 14 1
Cd     0.00000000000000     0.00000000000000     0.00000000000000
Cd     2.72508109625944     2.72508109625944     0.00000000000000
Cd     2.72508109625944     0.00000000000000     2.72508109625944
Cd     0.00000000000000     2.72508109625944     2.72508109625944
O     2.72508109625944     0.00000000000000     0.00000000000000
O     0.00000000000000     2.72508109625944     0.00000000000000
O     0.00000000000000     0.00000000000000     2.72508109625944
O     2.72508109625944     2.72508109625944     2.72508109625944
O     4.08762164438917     4.08762164438917     1.36254054812972
O     4.08762164438917     1.36254054812972     4.08762164438917
O     1.36254054812972     4.08762164438917     4.08762164438917
O     4.08762164438917     1.36254054812972     1.36254054812972
O     1.36254054812972     4.08762164438917     1.36254054812972
O     1.36254054812972     1.36254054812972     4.08762164438917