CRYSTAL
# Primitive lattice vectors in Angstrom
PRIMVEC
 5.27440237084906 0.00000000000000 0.00000000000000
 -0.00000000000000 5.27440237084906 0.00000000000000
 0.00000000000000 0.00000000000000 5.27440237084906
# Cartesian coordinates in Angstrom.
PRIMCOORD
 10 1
Cd     1.31860059271226     1.31860059271226     1.31860059271226
Cd     3.95580177813680     3.95580177813680     1.31860059271226
Cd     3.95580177813680     1.31860059271226     3.95580177813680
Cd     1.31860059271226     3.95580177813680     3.95580177813680
O     2.63720118542453     0.00000000000000     0.00000000000000
O     0.00000000000000     2.63720118542453     0.00000000000000
O     0.00000000000000     0.00000000000000     2.63720118542453
O     2.63720118542453     2.63720118542453     0.00000000000000
O     2.63720118542453     0.00000000000000     2.63720118542453
O     0.00000000000000     2.63720118542453     2.63720118542453