CRYSTAL
# Primitive lattice vectors in Angstrom
PRIMVEC
 5.52571580965983 0.00000000000000 0.00000000000000
 -0.00000000000000 5.52571580965983 0.00000000000000
 0.00000000000000 0.00000000000000 5.52571580965983
# Cartesian coordinates in Angstrom.
PRIMCOORD
 14 1
Ce     0.00000000000000     0.00000000000000     0.00000000000000
Ce     2.76285790482991     2.76285790482991     0.00000000000000
Ce     2.76285790482991     0.00000000000000     2.76285790482991
Ce     0.00000000000000     2.76285790482991     2.76285790482991
O     2.76285790482991     0.00000000000000     0.00000000000000
O     0.00000000000000     2.76285790482991     0.00000000000000
O     0.00000000000000     0.00000000000000     2.76285790482991
O     2.76285790482991     2.76285790482991     2.76285790482991
O     4.14428685724487     4.14428685724487     1.38142895241496
O     4.14428685724487     1.38142895241496     4.14428685724487
O     1.38142895241496     4.14428685724487     4.14428685724487
O     4.14428685724487     1.38142895241496     1.38142895241496
O     1.38142895241496     4.14428685724487     1.38142895241496
O     1.38142895241496     1.38142895241496     4.14428685724487