CRYSTAL
# Primitive lattice vectors in Angstrom
PRIMVEC
 5.48817680022852 0.00000000000000 0.00000000000000
 -0.00000000000000 5.48817680022852 0.00000000000000
 0.00000000000000 0.00000000000000 5.48817680022852
# Cartesian coordinates in Angstrom.
PRIMCOORD
 10 1
Ce     1.37204420005713     1.37204420005713     1.37204420005713
Ce     4.11613260017139     4.11613260017139     1.37204420005713
Ce     4.11613260017139     1.37204420005713     4.11613260017139
Ce     1.37204420005713     4.11613260017139     4.11613260017139
O     2.74408840011427     0.00000000000000     0.00000000000000
O     0.00000000000000     2.74408840011427     0.00000000000000
O     0.00000000000000     0.00000000000000     2.74408840011427
O     2.74408840011427     2.74408840011427     0.00000000000000
O     2.74408840011427     0.00000000000000     2.74408840011427
O     0.00000000000000     2.74408840011427     2.74408840011427