CRYSTAL
# Primitive lattice vectors in Angstrom
PRIMVEC
 4.36054319650383 0.00000000000000 0.00000000000000
 -0.00000000000000 4.36054319650383 0.00000000000000
 0.00000000000000 0.00000000000000 4.36054319650383
# Cartesian coordinates in Angstrom.
PRIMCOORD
 4 1
Ce     0.00000000000000     0.00000000000000     0.00000000000000
O     2.18027159825191     0.00000000000000     0.00000000000000
O     0.00000000000000     2.18027159825191     0.00000000000000
O     0.00000000000000     0.00000000000000     2.18027159825191