CRYSTAL
# Primitive lattice vectors in Angstrom
PRIMVEC
 5.29187302384576 0.00000000000000 0.00000000000000
 -0.00000000000000 5.29187302384576 0.00000000000000
 0.00000000000000 0.00000000000000 5.29187302384576
# Cartesian coordinates in Angstrom.
PRIMCOORD
 10 1
Cf     1.32296825596144     1.32296825596144     1.32296825596144
Cf     3.96890476788432     3.96890476788432     1.32296825596144
Cf     3.96890476788432     1.32296825596144     3.96890476788432
Cf     1.32296825596144     3.96890476788432     3.96890476788432
O     2.64593651192288     0.00000000000000     0.00000000000000
O     0.00000000000000     2.64593651192288     0.00000000000000
O     0.00000000000000     0.00000000000000     2.64593651192288
O     2.64593651192288     2.64593651192288     0.00000000000000
O     2.64593651192288     0.00000000000000     2.64593651192288
O     0.00000000000000     2.64593651192288     2.64593651192288