CRYSTAL
# Primitive lattice vectors in Angstrom
PRIMVEC
 4.08749154309402 0.00000000000000 0.00000000000000
 -0.00000000000000 4.08749154309402 0.00000000000000
 0.00000000000000 0.00000000000000 4.08749154309402
# Cartesian coordinates in Angstrom.
PRIMCOORD
 4 1
Cf     0.00000000000000     0.00000000000000     0.00000000000000
O     2.04374577154700     0.00000000000000     0.00000000000000
O     0.00000000000000     2.04374577154700     0.00000000000000
O     0.00000000000000     0.00000000000000     2.04374577154700