CRYSTAL
# Primitive lattice vectors in Angstrom
PRIMVEC
 5.34827602548905 0.00000000000000 0.00000000000000
 -0.00000000000000 5.34827602548905 0.00000000000000
 0.00000000000000 0.00000000000000 5.34827602548905
# Cartesian coordinates in Angstrom.
PRIMCOORD
 14 1
Cf     0.00000000000000     0.00000000000000     0.00000000000000
Cf     2.67413801274452     2.67413801274452     0.00000000000000
Cf     2.67413801274452     0.00000000000000     2.67413801274452
Cf     0.00000000000000     2.67413801274452     2.67413801274452
O     2.67413801274452     0.00000000000000     0.00000000000000
O     0.00000000000000     2.67413801274452     0.00000000000000
O     0.00000000000000     0.00000000000000     2.67413801274452
O     2.67413801274452     2.67413801274452     2.67413801274452
O     4.01120701911679     4.01120701911679     1.33706900637226
O     4.01120701911679     1.33706900637226     4.01120701911679
O     1.33706900637226     4.01120701911679     4.01120701911679
O     4.01120701911679     1.33706900637226     1.33706900637226
O     1.33706900637226     4.01120701911679     1.33706900637226
O     1.33706900637226     1.33706900637226     4.01120701911679