CRYSTAL
# Primitive lattice vectors in Angstrom
PRIMVEC
 3.74260211876367 0.00000000000000 0.00000000000000
 -0.00000000000000 3.74260211876367 0.00000000000000
 0.00000000000000 0.00000000000000 3.74260211876367
# Cartesian coordinates in Angstrom.
PRIMCOORD
 4 1
Cl     0.00000000000000     0.00000000000000     0.00000000000000
O     1.87130105938183     0.00000000000000     0.00000000000000
O     0.00000000000000     1.87130105938183     0.00000000000000
O     0.00000000000000     0.00000000000000     1.87130105938183