CRYSTAL
# Primitive lattice vectors in Angstrom
PRIMVEC
 5.13910585724614 0.00000000000000 0.00000000000000
 -0.00000000000000 5.13910585724614 0.00000000000000
 0.00000000000000 0.00000000000000 5.13910585724614
# Cartesian coordinates in Angstrom.
PRIMCOORD
 10 1
Cl     1.28477646431153     1.28477646431153     1.28477646431153
Cl     3.85432939293461     3.85432939293461     1.28477646431153
Cl     3.85432939293461     1.28477646431153     3.85432939293461
Cl     1.28477646431153     3.85432939293461     3.85432939293461
O     2.56955292862308     0.00000000000000     0.00000000000000
O     0.00000000000000     2.56955292862308     0.00000000000000
O     0.00000000000000     0.00000000000000     2.56955292862308
O     2.56955292862308     2.56955292862308     0.00000000000000
O     2.56955292862308     0.00000000000000     2.56955292862308
O     0.00000000000000     2.56955292862308     2.56955292862308