CRYSTAL
# Primitive lattice vectors in Angstrom
PRIMVEC
 5.32745534153007 0.00000000000000 0.00000000000000
 -0.00000000000000 5.32745534153007 0.00000000000000
 0.00000000000000 0.00000000000000 5.32745534153007
# Cartesian coordinates in Angstrom.
PRIMCOORD
 14 1
Cl     0.00000000000000     0.00000000000000     0.00000000000000
Cl     2.66372767076504     2.66372767076504     0.00000000000000
Cl     2.66372767076504     0.00000000000000     2.66372767076504
Cl     0.00000000000000     2.66372767076504     2.66372767076504
O     2.66372767076504     0.00000000000000     0.00000000000000
O     0.00000000000000     2.66372767076504     0.00000000000000
O     0.00000000000000     0.00000000000000     2.66372767076504
O     2.66372767076504     2.66372767076504     2.66372767076504
O     3.99559150614756     3.99559150614756     1.33186383538252
O     3.99559150614756     1.33186383538252     3.99559150614756
O     1.33186383538252     3.99559150614756     3.99559150614756
O     3.99559150614756     1.33186383538252     1.33186383538252
O     1.33186383538252     3.99559150614756     1.33186383538252
O     1.33186383538252     1.33186383538252     3.99559150614756