CRYSTAL
# Primitive lattice vectors in Angstrom
PRIMVEC
 4.07526658435794 0.00000000000000 0.00000000000000
 -0.00000000000000 4.07526658435794 0.00000000000000
 0.00000000000000 0.00000000000000 4.07526658435794
# Cartesian coordinates in Angstrom.
PRIMCOORD
 4 1
Cm     0.00000000000000     0.00000000000000     0.00000000000000
O     2.03763329217897     0.00000000000000     0.00000000000000
O     0.00000000000000     2.03763329217897     0.00000000000000
O     0.00000000000000     0.00000000000000     2.03763329217897