CRYSTAL
# Primitive lattice vectors in Angstrom
PRIMVEC
 5.31895816843634 0.00000000000000 0.00000000000000
 -0.00000000000000 5.31895816843634 0.00000000000000
 0.00000000000000 0.00000000000000 5.31895816843634
# Cartesian coordinates in Angstrom.
PRIMCOORD
 14 1
Cm     0.00000000000000     0.00000000000000     0.00000000000000
Cm     2.65947908421817     2.65947908421817     0.00000000000000
Cm     2.65947908421817     0.00000000000000     2.65947908421817
Cm     0.00000000000000     2.65947908421817     2.65947908421817
O     2.65947908421817     0.00000000000000     0.00000000000000
O     0.00000000000000     2.65947908421817     0.00000000000000
O     0.00000000000000     0.00000000000000     2.65947908421817
O     2.65947908421817     2.65947908421817     2.65947908421817
O     3.98921862632725     3.98921862632725     1.32973954210908
O     3.98921862632725     1.32973954210908     3.98921862632725
O     1.32973954210908     3.98921862632725     3.98921862632725
O     3.98921862632725     1.32973954210908     1.32973954210908
O     1.32973954210908     3.98921862632725     1.32973954210908
O     1.32973954210908     1.32973954210908     3.98921862632725