CRYSTAL
# Primitive lattice vectors in Angstrom
PRIMVEC
 5.27323228893733 0.00000000000000 0.00000000000000
 -0.00000000000000 5.27323228893733 0.00000000000000
 0.00000000000000 0.00000000000000 5.27323228893733
# Cartesian coordinates in Angstrom.
PRIMCOORD
 10 1
Cm     1.31830807223433     1.31830807223433     1.31830807223433
Cm     3.95492421670300     3.95492421670300     1.31830807223433
Cm     3.95492421670300     1.31830807223433     3.95492421670300
Cm     1.31830807223433     3.95492421670300     3.95492421670300
O     2.63661614446867     0.00000000000000     0.00000000000000
O     0.00000000000000     2.63661614446867     0.00000000000000
O     0.00000000000000     0.00000000000000     2.63661614446867
O     2.63661614446867     2.63661614446867     0.00000000000000
O     2.63661614446867     0.00000000000000     2.63661614446867
O     0.00000000000000     2.63661614446867     2.63661614446867