CRYSTAL
# Primitive lattice vectors in Angstrom
PRIMVEC
 3.62291963506940 0.00000000000000 0.00000000000000
 -0.00000000000000 3.62291963506940 0.00000000000000
 0.00000000000000 0.00000000000000 3.62291963506940
# Cartesian coordinates in Angstrom.
PRIMCOORD
 4 1
Co     0.00000000000000     0.00000000000000     0.00000000000000
O     1.81145981753470     0.00000000000000     0.00000000000000
O     0.00000000000000     1.81145981753470     0.00000000000000
O     0.00000000000000     0.00000000000000     1.81145981753470