CRYSTAL
# Primitive lattice vectors in Angstrom
PRIMVEC
 4.49807270776314 0.00000000000000 0.00000000000000
 -0.00000000000000 4.49807270776314 0.00000000000000
 0.00000000000000 0.00000000000000 4.49807270776314
# Cartesian coordinates in Angstrom.
PRIMCOORD
 10 1
Co     1.12451817694078     1.12451817694078     1.12451817694078
Co     3.37355453082235     3.37355453082235     1.12451817694078
Co     3.37355453082235     1.12451817694078     3.37355453082235
Co     1.12451817694078     3.37355453082235     3.37355453082235
O     2.24903635388157     0.00000000000000     0.00000000000000
O     0.00000000000000     2.24903635388157     0.00000000000000
O     0.00000000000000     0.00000000000000     2.24903635388157
O     2.24903635388157     2.24903635388157     0.00000000000000
O     2.24903635388157     0.00000000000000     2.24903635388157
O     0.00000000000000     2.24903635388157     2.24903635388157