CRYSTAL
# Primitive lattice vectors in Angstrom
PRIMVEC
 4.91038617317411 0.00000000000000 0.00000000000000
 -0.00000000000000 4.91038617317411 0.00000000000000
 0.00000000000000 0.00000000000000 4.91038617317411
# Cartesian coordinates in Angstrom.
PRIMCOORD
 14 1
Co     0.00000000000000     0.00000000000000     0.00000000000000
Co     2.45519308658705     2.45519308658705     0.00000000000000
Co     2.45519308658705     0.00000000000000     2.45519308658705
Co     0.00000000000000     2.45519308658705     2.45519308658705
O     2.45519308658705     0.00000000000000     0.00000000000000
O     0.00000000000000     2.45519308658705     0.00000000000000
O     0.00000000000000     0.00000000000000     2.45519308658705
O     2.45519308658705     2.45519308658705     2.45519308658705
O     3.68278962988058     3.68278962988058     1.22759654329353
O     3.68278962988058     1.22759654329353     3.68278962988058
O     1.22759654329353     3.68278962988058     3.68278962988058
O     3.68278962988058     1.22759654329353     1.22759654329353
O     1.22759654329353     3.68278962988058     1.22759654329353
O     1.22759654329353     1.22759654329353     3.68278962988058