CRYSTAL
# Primitive lattice vectors in Angstrom
PRIMVEC
 4.59433406318006 0.00000000000000 0.00000000000000
 -0.00000000000000 4.59433406318006 0.00000000000000
 0.00000000000000 0.00000000000000 4.59433406318006
# Cartesian coordinates in Angstrom.
PRIMCOORD
 10 1
Cr     1.14858351579501     1.14858351579501     1.14858351579501
Cr     3.44575054738505     3.44575054738505     1.14858351579501
Cr     3.44575054738505     1.14858351579501     3.44575054738505
Cr     1.14858351579501     3.44575054738505     3.44575054738505
O     2.29716703159003     0.00000000000000     0.00000000000000
O     0.00000000000000     2.29716703159003     0.00000000000000
O     0.00000000000000     0.00000000000000     2.29716703159003
O     2.29716703159003     2.29716703159003     0.00000000000000
O     2.29716703159003     0.00000000000000     2.29716703159003
O     0.00000000000000     2.29716703159003     2.29716703159003