CRYSTAL
# Primitive lattice vectors in Angstrom
PRIMVEC
 4.88651788644985 0.00000000000000 0.00000000000000
 -0.00000000000000 4.88651788644985 0.00000000000000
 0.00000000000000 0.00000000000000 4.88651788644985
# Cartesian coordinates in Angstrom.
PRIMCOORD
 14 1
Cr     0.00000000000000     0.00000000000000     0.00000000000000
Cr     2.44325894322492     2.44325894322492     0.00000000000000
Cr     2.44325894322492     0.00000000000000     2.44325894322492
Cr     0.00000000000000     2.44325894322492     2.44325894322492
O     2.44325894322492     0.00000000000000     0.00000000000000
O     0.00000000000000     2.44325894322492     0.00000000000000
O     0.00000000000000     0.00000000000000     2.44325894322492
O     2.44325894322492     2.44325894322492     2.44325894322492
O     3.66488841483739     3.66488841483739     1.22162947161246
O     3.66488841483739     1.22162947161246     3.66488841483739
O     1.22162947161246     3.66488841483739     3.66488841483739
O     3.66488841483739     1.22162947161246     1.22162947161246
O     1.22162947161246     3.66488841483739     1.22162947161246
O     1.22162947161246     1.22162947161246     3.66488841483739