CRYSTAL
# Primitive lattice vectors in Angstrom
PRIMVEC
 6.29586565232680 0.00000000000000 0.00000000000000
 -0.00000000000000 6.29586565232680 0.00000000000000
 0.00000000000000 0.00000000000000 6.29586565232680
# Cartesian coordinates in Angstrom.
PRIMCOORD
 14 1
Cs     0.00000000000000     0.00000000000000     0.00000000000000
Cs     3.14793282616340     3.14793282616340     0.00000000000000
Cs     3.14793282616340     0.00000000000000     3.14793282616340
Cs     0.00000000000000     3.14793282616340     3.14793282616340
O     3.14793282616340     0.00000000000000     0.00000000000000
O     0.00000000000000     3.14793282616340     0.00000000000000
O     0.00000000000000     0.00000000000000     3.14793282616340
O     3.14793282616340     3.14793282616340     3.14793282616340
O     4.72189923924510     4.72189923924510     1.57396641308170
O     4.72189923924510     1.57396641308170     4.72189923924510
O     1.57396641308170     4.72189923924510     4.72189923924510
O     4.72189923924510     1.57396641308170     1.57396641308170
O     1.57396641308170     4.72189923924510     1.57396641308170
O     1.57396641308170     1.57396641308170     4.72189923924510