CRYSTAL
# Primitive lattice vectors in Angstrom
PRIMVEC
 6.65678772116744 0.00000000000000 0.00000000000000
 -0.00000000000000 6.65678772116744 0.00000000000000
 0.00000000000000 0.00000000000000 6.65678772116744
# Cartesian coordinates in Angstrom.
PRIMCOORD
 10 1
Cs     1.66419693029186     1.66419693029186     1.66419693029186
Cs     4.99259079087558     4.99259079087558     1.66419693029186
Cs     4.99259079087558     1.66419693029186     4.99259079087558
Cs     1.66419693029186     4.99259079087558     4.99259079087558
O     3.32839386058372     0.00000000000000     0.00000000000000
O     0.00000000000000     3.32839386058372     0.00000000000000
O     0.00000000000000     0.00000000000000     3.32839386058372
O     3.32839386058372     3.32839386058372     0.00000000000000
O     3.32839386058372     0.00000000000000     3.32839386058372
O     0.00000000000000     3.32839386058372     3.32839386058372