CRYSTAL
# Primitive lattice vectors in Angstrom
PRIMVEC
 4.23642234595214 0.00000000000000 0.00000000000000
 -0.00000000000000 4.23642234595214 0.00000000000000
 0.00000000000000 0.00000000000000 4.23642234595214
# Cartesian coordinates in Angstrom.
PRIMCOORD
 4 1
Cs     0.00000000000000     0.00000000000000     0.00000000000000
O     2.11821117297607     0.00000000000000     0.00000000000000
O     0.00000000000000     2.11821117297607     0.00000000000000
O     0.00000000000000     0.00000000000000     2.11821117297607