CRYSTAL
# Primitive lattice vectors in Angstrom
PRIMVEC
 3.73614408966539 0.00000000000000 0.00000000000000
 -0.00000000000000 3.73614408966539 0.00000000000000
 0.00000000000000 0.00000000000000 3.73614408966539
# Cartesian coordinates in Angstrom.
PRIMCOORD
 4 1
Cu     0.00000000000000     0.00000000000000     0.00000000000000
O     1.86807204483269     0.00000000000000     0.00000000000000
O     0.00000000000000     1.86807204483269     0.00000000000000
O     0.00000000000000     0.00000000000000     1.86807204483269