CRYSTAL
# Primitive lattice vectors in Angstrom
PRIMVEC
 5.05152513189305 0.00000000000000 0.00000000000000
 -0.00000000000000 5.05152513189305 0.00000000000000
 0.00000000000000 0.00000000000000 5.05152513189305
# Cartesian coordinates in Angstrom.
PRIMCOORD
 14 1
Cu     0.00000000000000     0.00000000000000     0.00000000000000
Cu     2.52576256594653     2.52576256594653     0.00000000000000
Cu     2.52576256594653     0.00000000000000     2.52576256594653
Cu     0.00000000000000     2.52576256594653     2.52576256594653
O     2.52576256594653     0.00000000000000     0.00000000000000
O     0.00000000000000     2.52576256594653     0.00000000000000
O     0.00000000000000     0.00000000000000     2.52576256594653
O     2.52576256594653     2.52576256594653     2.52576256594653
O     3.78864384891979     3.78864384891979     1.26288128297326
O     3.78864384891979     1.26288128297326     3.78864384891979
O     1.26288128297326     3.78864384891979     3.78864384891979
O     3.78864384891979     1.26288128297326     1.26288128297326
O     1.26288128297326     3.78864384891979     1.26288128297326
O     1.26288128297326     1.26288128297326     3.78864384891979