CRYSTAL
# Primitive lattice vectors in Angstrom
PRIMVEC
 4.70305710988466 0.00000000000000 0.00000000000000
 -0.00000000000000 4.70305710988466 0.00000000000000
 0.00000000000000 0.00000000000000 4.70305710988466
# Cartesian coordinates in Angstrom.
PRIMCOORD
 10 1
Cu     1.17576427747116     1.17576427747116     1.17576427747116
Cu     3.52729283241350     3.52729283241350     1.17576427747116
Cu     3.52729283241350     1.17576427747116     3.52729283241350
Cu     1.17576427747116     3.52729283241350     3.52729283241350
O     2.35152855494234     0.00000000000000     0.00000000000000
O     0.00000000000000     2.35152855494234     0.00000000000000
O     0.00000000000000     0.00000000000000     2.35152855494234
O     2.35152855494234     2.35152855494234     0.00000000000000
O     2.35152855494234     0.00000000000000     2.35152855494234
O     0.00000000000000     2.35152855494234     2.35152855494234