CRYSTAL
# Primitive lattice vectors in Angstrom
PRIMVEC
 4.16949607010485 0.00000000000000 0.00000000000000
 -0.00000000000000 4.16949607010485 0.00000000000000
 0.00000000000000 0.00000000000000 4.16949607010485
# Cartesian coordinates in Angstrom.
PRIMCOORD
 4 1
Dy     0.00000000000000     0.00000000000000     0.00000000000000
O     2.08474803505242     0.00000000000000     0.00000000000000
O     0.00000000000000     2.08474803505242     0.00000000000000
O     0.00000000000000     0.00000000000000     2.08474803505242