CRYSTAL
# Primitive lattice vectors in Angstrom
PRIMVEC
 5.39987056545245 0.00000000000000 0.00000000000000
 -0.00000000000000 5.39987056545245 0.00000000000000
 0.00000000000000 0.00000000000000 5.39987056545245
# Cartesian coordinates in Angstrom.
PRIMCOORD
 14 1
Dy     0.00000000000000     0.00000000000000     0.00000000000000
Dy     2.69993528272622     2.69993528272622     0.00000000000000
Dy     2.69993528272622     0.00000000000000     2.69993528272622
Dy     0.00000000000000     2.69993528272622     2.69993528272622
O     2.69993528272622     0.00000000000000     0.00000000000000
O     0.00000000000000     2.69993528272622     0.00000000000000
O     0.00000000000000     0.00000000000000     2.69993528272622
O     2.69993528272622     2.69993528272622     2.69993528272622
O     4.04990292408934     4.04990292408934     1.34996764136311
O     4.04990292408934     1.34996764136311     4.04990292408934
O     1.34996764136311     4.04990292408934     4.04990292408934
O     4.04990292408934     1.34996764136311     1.34996764136311
O     1.34996764136311     4.04990292408934     1.34996764136311
O     1.34996764136311     1.34996764136311     4.04990292408934