CRYSTAL
# Primitive lattice vectors in Angstrom
PRIMVEC
 5.32038836063359 0.00000000000000 0.00000000000000
 -0.00000000000000 5.32038836063359 0.00000000000000
 0.00000000000000 0.00000000000000 5.32038836063359
# Cartesian coordinates in Angstrom.
PRIMCOORD
 10 1
Dy     1.33009709015839     1.33009709015839     1.33009709015839
Dy     3.99029127047519     3.99029127047519     1.33009709015839
Dy     3.99029127047519     1.33009709015839     3.99029127047519
Dy     1.33009709015839     3.99029127047519     3.99029127047519
O     2.66019418031680     0.00000000000000     0.00000000000000
O     0.00000000000000     2.66019418031680     0.00000000000000
O     0.00000000000000     0.00000000000000     2.66019418031680
O     2.66019418031680     2.66019418031680     0.00000000000000
O     2.66019418031680     0.00000000000000     2.66019418031680
O     0.00000000000000     2.66019418031680     2.66019418031680