CRYSTAL
# Primitive lattice vectors in Angstrom
PRIMVEC
 5.40429203474524 0.00000000000000 0.00000000000000
 -0.00000000000000 5.40429203474524 0.00000000000000
 0.00000000000000 0.00000000000000 5.40429203474524
# Cartesian coordinates in Angstrom.
PRIMCOORD
 14 1
Er     0.00000000000000     0.00000000000000     0.00000000000000
Er     2.70214601737262     2.70214601737262     0.00000000000000
Er     2.70214601737262     0.00000000000000     2.70214601737262
Er     0.00000000000000     2.70214601737262     2.70214601737262
O     2.70214601737262     0.00000000000000     0.00000000000000
O     0.00000000000000     2.70214601737262     0.00000000000000
O     0.00000000000000     0.00000000000000     2.70214601737262
O     2.70214601737262     2.70214601737262     2.70214601737262
O     4.05321902605893     4.05321902605893     1.35107300868631
O     4.05321902605893     1.35107300868631     4.05321902605893
O     1.35107300868631     4.05321902605893     4.05321902605893
O     4.05321902605893     1.35107300868631     1.35107300868631
O     1.35107300868631     4.05321902605893     1.35107300868631
O     1.35107300868631     1.35107300868631     4.05321902605893