CRYSTAL
# Primitive lattice vectors in Angstrom
PRIMVEC
 5.30257050041719 0.00000000000000 0.00000000000000
 -0.00000000000000 5.30257050041719 0.00000000000000
 0.00000000000000 0.00000000000000 5.30257050041719
# Cartesian coordinates in Angstrom.
PRIMCOORD
 10 1
Er     1.32564262510429     1.32564262510429     1.32564262510429
Er     3.97692787531289     3.97692787531289     1.32564262510429
Er     3.97692787531289     1.32564262510429     3.97692787531289
Er     1.32564262510429     3.97692787531289     3.97692787531289
O     2.65128525020860     0.00000000000000     0.00000000000000
O     0.00000000000000     2.65128525020860     0.00000000000000
O     0.00000000000000     0.00000000000000     2.65128525020860
O     2.65128525020860     2.65128525020860     0.00000000000000
O     2.65128525020860     0.00000000000000     2.65128525020860
O     0.00000000000000     2.65128525020860     2.65128525020860