CRYSTAL
# Primitive lattice vectors in Angstrom
PRIMVEC
 4.19681566193668 0.00000000000000 0.00000000000000
 -0.00000000000000 4.19681566193668 0.00000000000000
 0.00000000000000 0.00000000000000 4.19681566193668
# Cartesian coordinates in Angstrom.
PRIMCOORD
 4 1
Er     0.00000000000000     0.00000000000000     0.00000000000000
O     2.09840783096833     0.00000000000000     0.00000000000000
O     0.00000000000000     2.09840783096833     0.00000000000000
O     0.00000000000000     0.00000000000000     2.09840783096833