CRYSTAL
# Primitive lattice vectors in Angstrom
PRIMVEC
 5.37546382062750 0.00000000000000 0.00000000000000
 -0.00000000000000 5.37546382062750 0.00000000000000
 0.00000000000000 0.00000000000000 5.37546382062750
# Cartesian coordinates in Angstrom.
PRIMCOORD
 14 1
Es     0.00000000000000     0.00000000000000     0.00000000000000
Es     2.68773191031375     2.68773191031375     0.00000000000000
Es     2.68773191031375     0.00000000000000     2.68773191031375
Es     0.00000000000000     2.68773191031375     2.68773191031375
O     2.68773191031375     0.00000000000000     0.00000000000000
O     0.00000000000000     2.68773191031375     0.00000000000000
O     0.00000000000000     0.00000000000000     2.68773191031375
O     2.68773191031375     2.68773191031375     2.68773191031375
O     4.03159786547062     4.03159786547062     1.34386595515687
O     4.03159786547062     1.34386595515687     4.03159786547062
O     1.34386595515687     4.03159786547062     4.03159786547062
O     4.03159786547062     1.34386595515687     1.34386595515687
O     1.34386595515687     4.03159786547062     1.34386595515687
O     1.34386595515687     1.34386595515687     4.03159786547062