CRYSTAL
# Primitive lattice vectors in Angstrom
PRIMVEC
 5.31315427307794 0.00000000000000 0.00000000000000
 -0.00000000000000 5.31315427307794 0.00000000000000
 0.00000000000000 0.00000000000000 5.31315427307794
# Cartesian coordinates in Angstrom.
PRIMCOORD
 10 1
Es     1.32828856826948     1.32828856826948     1.32828856826948
Es     3.98486570480846     3.98486570480846     1.32828856826948
Es     3.98486570480846     1.32828856826948     3.98486570480846
Es     1.32828856826948     3.98486570480846     3.98486570480846
O     2.65657713653898     0.00000000000000     0.00000000000000
O     0.00000000000000     2.65657713653898     0.00000000000000
O     0.00000000000000     0.00000000000000     2.65657713653898
O     2.65657713653898     2.65657713653898     0.00000000000000
O     2.65657713653898     0.00000000000000     2.65657713653898
O     0.00000000000000     2.65657713653898     2.65657713653898