CRYSTAL
# Primitive lattice vectors in Angstrom
PRIMVEC
 4.11207078056931 0.00000000000000 0.00000000000000
 -0.00000000000000 4.11207078056931 0.00000000000000
 0.00000000000000 0.00000000000000 4.11207078056931
# Cartesian coordinates in Angstrom.
PRIMCOORD
 4 1
Es     0.00000000000000     0.00000000000000     0.00000000000000
O     2.05603539028465     0.00000000000000     0.00000000000000
O     0.00000000000000     2.05603539028465     0.00000000000000
O     0.00000000000000     0.00000000000000     2.05603539028465