CRYSTAL
# Primitive lattice vectors in Angstrom
PRIMVEC
 5.36013940126762 0.00000000000000 0.00000000000000
 -0.00000000000000 5.36013940126762 0.00000000000000
 0.00000000000000 0.00000000000000 5.36013940126762
# Cartesian coordinates in Angstrom.
PRIMCOORD
 10 1
Eu     1.34003485031690     1.34003485031690     1.34003485031690
Eu     4.02010455095072     4.02010455095072     1.34003485031690
Eu     4.02010455095072     1.34003485031690     4.02010455095072
Eu     1.34003485031690     4.02010455095072     4.02010455095072
O     2.68006970063381     0.00000000000000     0.00000000000000
O     0.00000000000000     2.68006970063381     0.00000000000000
O     0.00000000000000     0.00000000000000     2.68006970063381
O     2.68006970063381     2.68006970063381     0.00000000000000
O     2.68006970063381     0.00000000000000     2.68006970063381
O     0.00000000000000     2.68006970063381     2.68006970063381