CRYSTAL
# Primitive lattice vectors in Angstrom
PRIMVEC
 5.40919499997228 0.00000000000000 0.00000000000000
 -0.00000000000000 5.40919499997228 0.00000000000000
 0.00000000000000 0.00000000000000 5.40919499997228
# Cartesian coordinates in Angstrom.
PRIMCOORD
 14 1
Eu     0.00000000000000     0.00000000000000     0.00000000000000
Eu     2.70459749998614     2.70459749998614     0.00000000000000
Eu     2.70459749998614     0.00000000000000     2.70459749998614
Eu     0.00000000000000     2.70459749998614     2.70459749998614
O     2.70459749998614     0.00000000000000     0.00000000000000
O     0.00000000000000     2.70459749998614     0.00000000000000
O     0.00000000000000     0.00000000000000     2.70459749998614
O     2.70459749998614     2.70459749998614     2.70459749998614
O     4.05689624997921     4.05689624997921     1.35229874999307
O     4.05689624997921     1.35229874999307     4.05689624997921
O     1.35229874999307     4.05689624997921     4.05689624997921
O     4.05689624997921     1.35229874999307     1.35229874999307
O     1.35229874999307     4.05689624997921     1.35229874999307
O     1.35229874999307     1.35229874999307     4.05689624997921