CRYSTAL
# Primitive lattice vectors in Angstrom
PRIMVEC
 4.15237947861495 0.00000000000000 0.00000000000000
 -0.00000000000000 4.15237947861495 0.00000000000000
 0.00000000000000 0.00000000000000 4.15237947861495
# Cartesian coordinates in Angstrom.
PRIMCOORD
 4 1
Eu     0.00000000000000     0.00000000000000     0.00000000000000
O     2.07618973930747     0.00000000000000     0.00000000000000
O     0.00000000000000     2.07618973930747     0.00000000000000
O     0.00000000000000     0.00000000000000     2.07618973930747