CRYSTAL
# Primitive lattice vectors in Angstrom
PRIMVEC
 4.96113051187084 0.00000000000000 0.00000000000000
 -0.00000000000000 4.96113051187084 0.00000000000000
 0.00000000000000 0.00000000000000 4.96113051187084
# Cartesian coordinates in Angstrom.
PRIMCOORD
 14 1
O     2.48056525593542     0.00000000000000     0.00000000000000
O     0.00000000000000     2.48056525593542     0.00000000000000
O     0.00000000000000     0.00000000000000     2.48056525593542
O     2.48056525593542     2.48056525593542     2.48056525593542
O     3.72084788390313     3.72084788390313     1.24028262796771
O     3.72084788390313     1.24028262796771     3.72084788390313
O     1.24028262796771     3.72084788390313     3.72084788390313
O     3.72084788390313     1.24028262796771     1.24028262796771
O     1.24028262796771     3.72084788390313     1.24028262796771
O     1.24028262796771     1.24028262796771     3.72084788390313
F     0.00000000000000     0.00000000000000     0.00000000000000
F     2.48056525593542     2.48056525593542     0.00000000000000
F     2.48056525593542     0.00000000000000     2.48056525593542
F     0.00000000000000     2.48056525593542     2.48056525593542