CRYSTAL
# Primitive lattice vectors in Angstrom
PRIMVEC
 4.84428403385959 0.00000000000000 0.00000000000000
 -0.00000000000000 4.84428403385959 0.00000000000000
 0.00000000000000 0.00000000000000 4.84428403385959
# Cartesian coordinates in Angstrom.
PRIMCOORD
 10 1
O     2.42214201692980     0.00000000000000     0.00000000000000
O     0.00000000000000     2.42214201692980     0.00000000000000
O     0.00000000000000     0.00000000000000     2.42214201692980
O     2.42214201692980     2.42214201692980     0.00000000000000
O     2.42214201692980     0.00000000000000     2.42214201692980
O     0.00000000000000     2.42214201692980     2.42214201692980
F     1.21107100846490     1.21107100846490     1.21107100846490
F     3.63321302539470     3.63321302539470     1.21107100846490
F     3.63321302539470     1.21107100846490     3.63321302539470
F     1.21107100846490     3.63321302539470     3.63321302539470