CRYSTAL
# Primitive lattice vectors in Angstrom
PRIMVEC
 3.79349107223347 0.00000000000000 0.00000000000000
 -0.00000000000000 3.79349107223347 0.00000000000000
 0.00000000000000 0.00000000000000 3.79349107223347
# Cartesian coordinates in Angstrom.
PRIMCOORD
 4 1
O     1.89674553611673     0.00000000000000     0.00000000000000
O     0.00000000000000     1.89674553611673     0.00000000000000
O     0.00000000000000     0.00000000000000     1.89674553611673
F     0.00000000000000     0.00000000000000     0.00000000000000