CRYSTAL
# Primitive lattice vectors in Angstrom
PRIMVEC
 3.58771216843768 0.00000000000000 0.00000000000000
 -0.00000000000000 3.58771216843768 0.00000000000000
 0.00000000000000 0.00000000000000 3.58771216843768
# Cartesian coordinates in Angstrom.
PRIMCOORD
 4 1
Fe     0.00000000000000     0.00000000000000     0.00000000000000
O     1.79385608421883     0.00000000000000     0.00000000000000
O     0.00000000000000     1.79385608421883     0.00000000000000
O     0.00000000000000     0.00000000000000     1.79385608421883