CRYSTAL
# Primitive lattice vectors in Angstrom
PRIMVEC
 4.88339746752405 0.00000000000000 0.00000000000000
 -0.00000000000000 4.88339746752405 0.00000000000000
 0.00000000000000 0.00000000000000 4.88339746752405
# Cartesian coordinates in Angstrom.
PRIMCOORD
 14 1
Fe     0.00000000000000     0.00000000000000     0.00000000000000
Fe     2.44169873376203     2.44169873376203     0.00000000000000
Fe     2.44169873376203     0.00000000000000     2.44169873376203
Fe     0.00000000000000     2.44169873376203     2.44169873376203
O     2.44169873376203     0.00000000000000     0.00000000000000
O     0.00000000000000     2.44169873376203     0.00000000000000
O     0.00000000000000     0.00000000000000     2.44169873376203
O     2.44169873376203     2.44169873376203     2.44169873376203
O     3.66254810064304     3.66254810064304     1.22084936688101
O     3.66254810064304     1.22084936688101     3.66254810064304
O     1.22084936688101     3.66254810064304     3.66254810064304
O     3.66254810064304     1.22084936688101     1.22084936688101
O     1.22084936688101     3.66254810064304     1.22084936688101
O     1.22084936688101     1.22084936688101     3.66254810064304