CRYSTAL
# Primitive lattice vectors in Angstrom
PRIMVEC
 4.50102891685622 0.00000000000000 0.00000000000000
 -0.00000000000000 4.50102891685622 0.00000000000000
 0.00000000000000 0.00000000000000 4.50102891685622
# Cartesian coordinates in Angstrom.
PRIMCOORD
 10 1
Fe     1.12525722921405     1.12525722921405     1.12525722921405
Fe     3.37577168764217     3.37577168764217     1.12525722921405
Fe     3.37577168764217     1.12525722921405     3.37577168764217
Fe     1.12525722921405     3.37577168764217     3.37577168764217
O     2.25051445842811     0.00000000000000     0.00000000000000
O     0.00000000000000     2.25051445842811     0.00000000000000
O     0.00000000000000     0.00000000000000     2.25051445842811
O     2.25051445842811     2.25051445842811     0.00000000000000
O     2.25051445842811     0.00000000000000     2.25051445842811
O     0.00000000000000     2.25051445842811     2.25051445842811