CRYSTAL
# Primitive lattice vectors in Angstrom
PRIMVEC
 5.41350949369721 0.00000000000000 0.00000000000000
 -0.00000000000000 5.41350949369721 0.00000000000000
 0.00000000000000 0.00000000000000 5.41350949369721
# Cartesian coordinates in Angstrom.
PRIMCOORD
 14 1
Fm     0.00000000000000     0.00000000000000     0.00000000000000
Fm     2.70675474684860     2.70675474684860     0.00000000000000
Fm     2.70675474684860     0.00000000000000     2.70675474684860
Fm     0.00000000000000     2.70675474684860     2.70675474684860
O     2.70675474684860     0.00000000000000     0.00000000000000
O     0.00000000000000     2.70675474684860     0.00000000000000
O     0.00000000000000     0.00000000000000     2.70675474684860
O     2.70675474684860     2.70675474684860     2.70675474684860
O     4.06013212027291     4.06013212027291     1.35337737342430
O     4.06013212027291     1.35337737342430     4.06013212027291
O     1.35337737342430     4.06013212027291     4.06013212027291
O     4.06013212027291     1.35337737342430     1.35337737342430
O     1.35337737342430     4.06013212027291     1.35337737342430
O     1.35337737342430     1.35337737342430     4.06013212027291