CRYSTAL
# Primitive lattice vectors in Angstrom
PRIMVEC
 5.34578174431629 0.00000000000000 0.00000000000000
 -0.00000000000000 5.34578174431629 0.00000000000000
 0.00000000000000 0.00000000000000 5.34578174431629
# Cartesian coordinates in Angstrom.
PRIMCOORD
 10 1
Fm     1.33644543607907     1.33644543607907     1.33644543607907
Fm     4.00933630823722     4.00933630823722     1.33644543607907
Fm     4.00933630823722     1.33644543607907     4.00933630823722
Fm     1.33644543607907     4.00933630823722     4.00933630823722
O     2.67289087215815     0.00000000000000     0.00000000000000
O     0.00000000000000     2.67289087215815     0.00000000000000
O     0.00000000000000     0.00000000000000     2.67289087215815
O     2.67289087215815     2.67289087215815     0.00000000000000
O     2.67289087215815     0.00000000000000     2.67289087215815
O     0.00000000000000     2.67289087215815     2.67289087215815