CRYSTAL
# Primitive lattice vectors in Angstrom
PRIMVEC
 4.15167760184813 0.00000000000000 0.00000000000000
 -0.00000000000000 4.15167760184813 0.00000000000000
 0.00000000000000 0.00000000000000 4.15167760184813
# Cartesian coordinates in Angstrom.
PRIMCOORD
 4 1
Fm     0.00000000000000     0.00000000000000     0.00000000000000
O     2.07583880092406     0.00000000000000     0.00000000000000
O     0.00000000000000     2.07583880092406     0.00000000000000
O     0.00000000000000     0.00000000000000     2.07583880092406