CRYSTAL
# Primitive lattice vectors in Angstrom
PRIMVEC
 6.16098264925095 0.00000000000000 0.00000000000000
 -0.00000000000000 6.16098264925095 0.00000000000000
 0.00000000000000 0.00000000000000 6.16098264925095
# Cartesian coordinates in Angstrom.
PRIMCOORD
 14 1
Fr     0.00000000000000     0.00000000000000     0.00000000000000
Fr     3.08049132462547     3.08049132462547     0.00000000000000
Fr     3.08049132462547     0.00000000000000     3.08049132462547
Fr     0.00000000000000     3.08049132462547     3.08049132462547
O     3.08049132462547     0.00000000000000     0.00000000000000
O     0.00000000000000     3.08049132462547     0.00000000000000
O     0.00000000000000     0.00000000000000     3.08049132462547
O     3.08049132462547     3.08049132462547     3.08049132462547
O     4.62073698693821     4.62073698693821     1.54024566231274
O     4.62073698693821     1.54024566231274     4.62073698693821
O     1.54024566231274     4.62073698693821     4.62073698693821
O     4.62073698693821     1.54024566231274     1.54024566231274
O     1.54024566231274     4.62073698693821     1.54024566231274
O     1.54024566231274     1.54024566231274     4.62073698693821