CRYSTAL
# Primitive lattice vectors in Angstrom
PRIMVEC
 6.46867110461947 0.00000000000000 0.00000000000000
 -0.00000000000000 6.46867110461947 0.00000000000000
 0.00000000000000 0.00000000000000 6.46867110461947
# Cartesian coordinates in Angstrom.
PRIMCOORD
 10 1
Fr     1.61716777615486     1.61716777615486     1.61716777615486
Fr     4.85150332846460     4.85150332846460     1.61716777615486
Fr     4.85150332846460     1.61716777615486     4.85150332846460
Fr     1.61716777615486     4.85150332846460     4.85150332846460
O     3.23433555230974     0.00000000000000     0.00000000000000
O     0.00000000000000     3.23433555230974     0.00000000000000
O     0.00000000000000     0.00000000000000     3.23433555230974
O     3.23433555230974     3.23433555230974     0.00000000000000
O     3.23433555230974     0.00000000000000     3.23433555230974
O     0.00000000000000     3.23433555230974     3.23433555230974