CRYSTAL
# Primitive lattice vectors in Angstrom
PRIMVEC
 5.14357574942594 0.00000000000000 0.00000000000000
 -0.00000000000000 5.14357574942594 0.00000000000000
 0.00000000000000 0.00000000000000 5.14357574942594
# Cartesian coordinates in Angstrom.
PRIMCOORD
 14 1
Ga     0.00000000000000     0.00000000000000     0.00000000000000
Ga     2.57178787471297     2.57178787471297     0.00000000000000
Ga     2.57178787471297     0.00000000000000     2.57178787471297
Ga     0.00000000000000     2.57178787471297     2.57178787471297
O     2.57178787471297     0.00000000000000     0.00000000000000
O     0.00000000000000     2.57178787471297     0.00000000000000
O     0.00000000000000     0.00000000000000     2.57178787471297
O     2.57178787471297     2.57178787471297     2.57178787471297
O     3.85768181206945     3.85768181206945     1.28589393735648
O     3.85768181206945     1.28589393735648     3.85768181206945
O     1.28589393735648     3.85768181206945     3.85768181206945
O     3.85768181206945     1.28589393735648     1.28589393735648
O     1.28589393735648     3.85768181206945     1.28589393735648
O     1.28589393735648     1.28589393735648     3.85768181206945