CRYSTAL
# Primitive lattice vectors in Angstrom
PRIMVEC
 3.86358066193373 0.00000000000000 0.00000000000000
 -0.00000000000000 3.86358066193373 0.00000000000000
 0.00000000000000 0.00000000000000 3.86358066193373
# Cartesian coordinates in Angstrom.
PRIMCOORD
 4 1
Ga     0.00000000000000     0.00000000000000     0.00000000000000
O     1.93179033096686     0.00000000000000     0.00000000000000
O     0.00000000000000     1.93179033096686     0.00000000000000
O     0.00000000000000     0.00000000000000     1.93179033096686