CRYSTAL
# Primitive lattice vectors in Angstrom
PRIMVEC
 4.80671189405332 0.00000000000000 0.00000000000000
 -0.00000000000000 4.80671189405332 0.00000000000000
 0.00000000000000 0.00000000000000 4.80671189405332
# Cartesian coordinates in Angstrom.
PRIMCOORD
 10 1
Ga     1.20167797351333     1.20167797351333     1.20167797351333
Ga     3.60503392053999     3.60503392053999     1.20167797351333
Ga     3.60503392053999     1.20167797351333     3.60503392053999
Ga     1.20167797351333     3.60503392053999     3.60503392053999
O     2.40335594702666     0.00000000000000     0.00000000000000
O     0.00000000000000     2.40335594702666     0.00000000000000
O     0.00000000000000     0.00000000000000     2.40335594702666
O     2.40335594702666     2.40335594702666     0.00000000000000
O     2.40335594702666     0.00000000000000     2.40335594702666
O     0.00000000000000     2.40335594702666     2.40335594702666