CRYSTAL
# Primitive lattice vectors in Angstrom
PRIMVEC
 5.40421336348849 0.00000000000000 0.00000000000000
 -0.00000000000000 5.40421336348849 0.00000000000000
 0.00000000000000 0.00000000000000 5.40421336348849
# Cartesian coordinates in Angstrom.
PRIMCOORD
 14 1
Gd     0.00000000000000     0.00000000000000     0.00000000000000
Gd     2.70210668174425     2.70210668174425     0.00000000000000
Gd     2.70210668174425     0.00000000000000     2.70210668174425
Gd     0.00000000000000     2.70210668174425     2.70210668174425
O     2.70210668174425     0.00000000000000     0.00000000000000
O     0.00000000000000     2.70210668174425     0.00000000000000
O     0.00000000000000     0.00000000000000     2.70210668174425
O     2.70210668174425     2.70210668174425     2.70210668174425
O     4.05316002261637     4.05316002261637     1.35105334087212
O     4.05316002261637     1.35105334087212     4.05316002261637
O     1.35105334087212     4.05316002261637     4.05316002261637
O     4.05316002261637     1.35105334087212     1.35105334087212
O     1.35105334087212     4.05316002261637     1.35105334087212
O     1.35105334087212     1.35105334087212     4.05316002261637