CRYSTAL
# Primitive lattice vectors in Angstrom
PRIMVEC
 5.34511906197427 0.00000000000000 0.00000000000000
 -0.00000000000000 5.34511906197427 0.00000000000000
 0.00000000000000 0.00000000000000 5.34511906197427
# Cartesian coordinates in Angstrom.
PRIMCOORD
 10 1
Gd     1.33627976549356     1.33627976549356     1.33627976549356
Gd     4.00883929648070     4.00883929648070     1.33627976549356
Gd     4.00883929648070     1.33627976549356     4.00883929648070
Gd     1.33627976549356     4.00883929648070     4.00883929648070
O     2.67255953098714     0.00000000000000     0.00000000000000
O     0.00000000000000     2.67255953098714     0.00000000000000
O     0.00000000000000     0.00000000000000     2.67255953098714
O     2.67255953098714     2.67255953098714     0.00000000000000
O     2.67255953098714     0.00000000000000     2.67255953098714
O     0.00000000000000     2.67255953098714     2.67255953098714