CRYSTAL
# Primitive lattice vectors in Angstrom
PRIMVEC
 4.15538432229253 0.00000000000000 0.00000000000000
 -0.00000000000000 4.15538432229253 0.00000000000000
 0.00000000000000 0.00000000000000 4.15538432229253
# Cartesian coordinates in Angstrom.
PRIMCOORD
 4 1
Gd     0.00000000000000     0.00000000000000     0.00000000000000
O     2.07769216114626     0.00000000000000     0.00000000000000
O     0.00000000000000     2.07769216114626     0.00000000000000
O     0.00000000000000     0.00000000000000     2.07769216114626