CRYSTAL
# Primitive lattice vectors in Angstrom
PRIMVEC
 3.71282955471127 0.00000000000000 0.00000000000000
 -0.00000000000000 3.71282955471127 0.00000000000000
 0.00000000000000 0.00000000000000 3.71282955471127
# Cartesian coordinates in Angstrom.
PRIMCOORD
 4 1
Ge     0.00000000000000     0.00000000000000     0.00000000000000
O     1.85641477735563     0.00000000000000     0.00000000000000
O     0.00000000000000     1.85641477735563     0.00000000000000
O     0.00000000000000     0.00000000000000     1.85641477735563