CRYSTAL
# Primitive lattice vectors in Angstrom
PRIMVEC
 4.95238864734638 0.00000000000000 0.00000000000000
 -0.00000000000000 4.95238864734638 0.00000000000000
 0.00000000000000 0.00000000000000 4.95238864734638
# Cartesian coordinates in Angstrom.
PRIMCOORD
 10 1
Ge     1.23809716183659     1.23809716183659     1.23809716183659
Ge     3.71429148550978     3.71429148550978     1.23809716183659
Ge     3.71429148550978     1.23809716183659     3.71429148550978
Ge     1.23809716183659     3.71429148550978     3.71429148550978
O     2.47619432367319     0.00000000000000     0.00000000000000
O     0.00000000000000     2.47619432367319     0.00000000000000
O     0.00000000000000     0.00000000000000     2.47619432367319
O     2.47619432367319     2.47619432367319     0.00000000000000
O     2.47619432367319     0.00000000000000     2.47619432367319
O     0.00000000000000     2.47619432367319     2.47619432367319