CRYSTAL
# Primitive lattice vectors in Angstrom
PRIMVEC
 5.18941087389253 0.00000000000000 0.00000000000000
 -0.00000000000000 5.18941087389253 0.00000000000000
 0.00000000000000 0.00000000000000 5.18941087389253
# Cartesian coordinates in Angstrom.
PRIMCOORD
 14 1
Ge     0.00000000000000     0.00000000000000     0.00000000000000
Ge     2.59470543694626     2.59470543694626     0.00000000000000
Ge     2.59470543694626     0.00000000000000     2.59470543694626
Ge     0.00000000000000     2.59470543694626     2.59470543694626
O     2.59470543694626     0.00000000000000     0.00000000000000
O     0.00000000000000     2.59470543694626     0.00000000000000
O     0.00000000000000     0.00000000000000     2.59470543694626
O     2.59470543694626     2.59470543694626     2.59470543694626
O     3.89205815541939     3.89205815541939     1.29735271847313
O     3.89205815541939     1.29735271847313     3.89205815541939
O     1.29735271847313     3.89205815541939     3.89205815541939
O     3.89205815541939     1.29735271847313     1.29735271847313
O     1.29735271847313     3.89205815541939     1.29735271847313
O     1.29735271847313     1.29735271847313     3.89205815541939