CRYSTAL
# Primitive lattice vectors in Angstrom
PRIMVEC
 4.69697901445081 0.00000000000000 0.00000000000000
 -0.00000000000000 4.69697901445081 0.00000000000000
 0.00000000000000 0.00000000000000 4.69697901445081
# Cartesian coordinates in Angstrom.
PRIMCOORD
 14 1
H     0.00000000000000     0.00000000000000     0.00000000000000
H     2.34848950722540     2.34848950722540     0.00000000000000
H     2.34848950722540     0.00000000000000     2.34848950722540
H     0.00000000000000     2.34848950722540     2.34848950722540
O     2.34848950722540     0.00000000000000     0.00000000000000
O     0.00000000000000     2.34848950722540     0.00000000000000
O     0.00000000000000     0.00000000000000     2.34848950722540
O     2.34848950722540     2.34848950722540     2.34848950722540
O     3.52273426083810     3.52273426083810     1.17424475361270
O     3.52273426083810     1.17424475361270     3.52273426083810
O     1.17424475361270     3.52273426083810     3.52273426083810
O     3.52273426083810     1.17424475361270     1.17424475361270
O     1.17424475361270     3.52273426083810     1.17424475361270
O     1.17424475361270     1.17424475361270     3.52273426083810