CRYSTAL
# Primitive lattice vectors in Angstrom
PRIMVEC
 3.96891717965207 0.00000000000000 0.00000000000000
 -0.00000000000000 3.96891717965207 0.00000000000000
 0.00000000000000 0.00000000000000 3.96891717965207
# Cartesian coordinates in Angstrom.
PRIMCOORD
 10 1
H     0.99222929491302     0.99222929491302     0.99222929491302
H     2.97668788473905     2.97668788473905     0.99222929491302
H     2.97668788473905     0.99222929491302     2.97668788473905
H     0.99222929491302     2.97668788473905     2.97668788473905
O     1.98445858982604     0.00000000000000     0.00000000000000
O     0.00000000000000     1.98445858982604     0.00000000000000
O     0.00000000000000     0.00000000000000     1.98445858982604
O     1.98445858982604     1.98445858982604     0.00000000000000
O     1.98445858982604     0.00000000000000     1.98445858982604
O     0.00000000000000     1.98445858982604     1.98445858982604