CRYSTAL
# Primitive lattice vectors in Angstrom
PRIMVEC
 3.15100073273936 0.00000000000000 0.00000000000000
 -0.00000000000000 3.15100073273936 0.00000000000000
 0.00000000000000 0.00000000000000 3.15100073273936
# Cartesian coordinates in Angstrom.
PRIMCOORD
 4 1
H     0.00000000000000     0.00000000000000     0.00000000000000
O     1.57550036636968     0.00000000000000     0.00000000000000
O     0.00000000000000     1.57550036636968     0.00000000000000
O     0.00000000000000     0.00000000000000     1.57550036636968