CRYSTAL
# Primitive lattice vectors in Angstrom
PRIMVEC
 4.83643718092171 0.00000000000000 0.00000000000000
 -0.00000000000000 4.83643718092171 0.00000000000000
 0.00000000000000 0.00000000000000 4.83643718092171
# Cartesian coordinates in Angstrom.
PRIMCOORD
 14 1
He     0.00000000000000     0.00000000000000     0.00000000000000
He     2.41821859046085     2.41821859046085     0.00000000000000
He     2.41821859046085     0.00000000000000     2.41821859046085
He     0.00000000000000     2.41821859046085     2.41821859046085
O     2.41821859046085     0.00000000000000     0.00000000000000
O     0.00000000000000     2.41821859046085     0.00000000000000
O     0.00000000000000     0.00000000000000     2.41821859046085
O     2.41821859046085     2.41821859046085     2.41821859046085
O     3.62732788569128     3.62732788569128     1.20910929523043
O     3.62732788569128     1.20910929523043     3.62732788569128
O     1.20910929523043     3.62732788569128     3.62732788569128
O     3.62732788569128     1.20910929523043     1.20910929523043
O     1.20910929523043     3.62732788569128     1.20910929523043
O     1.20910929523043     1.20910929523043     3.62732788569128