CRYSTAL
# Primitive lattice vectors in Angstrom
PRIMVEC
 3.53936528328353 0.00000000000000 0.00000000000000
 -0.00000000000000 3.53936528328353 0.00000000000000
 0.00000000000000 0.00000000000000 3.53936528328353
# Cartesian coordinates in Angstrom.
PRIMCOORD
 4 1
He     0.00000000000000     0.00000000000000     0.00000000000000
O     1.76968264164176     0.00000000000000     0.00000000000000
O     0.00000000000000     1.76968264164176     0.00000000000000
O     0.00000000000000     0.00000000000000     1.76968264164176