CRYSTAL
# Primitive lattice vectors in Angstrom
PRIMVEC
 4.59954944458614 0.00000000000000 0.00000000000000
 -0.00000000000000 4.59954944458614 0.00000000000000
 0.00000000000000 0.00000000000000 4.59954944458614
# Cartesian coordinates in Angstrom.
PRIMCOORD
 10 1
He     1.14988736114653     1.14988736114653     1.14988736114653
He     3.44966208343961     3.44966208343961     1.14988736114653
He     3.44966208343961     1.14988736114653     3.44966208343961
He     1.14988736114653     3.44966208343961     3.44966208343961
O     2.29977472229307     0.00000000000000     0.00000000000000
O     0.00000000000000     2.29977472229307     0.00000000000000
O     0.00000000000000     0.00000000000000     2.29977472229307
O     2.29977472229307     2.29977472229307     0.00000000000000
O     2.29977472229307     0.00000000000000     2.29977472229307
O     0.00000000000000     2.29977472229307     2.29977472229307