CRYSTAL
# Primitive lattice vectors in Angstrom
PRIMVEC
 5.04466286901774 0.00000000000000 0.00000000000000
 -0.00000000000000 5.04466286901774 0.00000000000000
 0.00000000000000 0.00000000000000 5.04466286901774
# Cartesian coordinates in Angstrom.
PRIMCOORD
 10 1
Hf     1.26116571725443     1.26116571725443     1.26116571725443
Hf     3.78349715176330     3.78349715176330     1.26116571725443
Hf     3.78349715176330     1.26116571725443     3.78349715176330
Hf     1.26116571725443     3.78349715176330     3.78349715176330
O     2.52233143450887     0.00000000000000     0.00000000000000
O     0.00000000000000     2.52233143450887     0.00000000000000
O     0.00000000000000     0.00000000000000     2.52233143450887
O     2.52233143450887     2.52233143450887     0.00000000000000
O     2.52233143450887     0.00000000000000     2.52233143450887
O     0.00000000000000     2.52233143450887     2.52233143450887