CRYSTAL
# Primitive lattice vectors in Angstrom
PRIMVEC
 5.22764815270433 0.00000000000000 0.00000000000000
 -0.00000000000000 5.22764815270433 0.00000000000000
 0.00000000000000 0.00000000000000 5.22764815270433
# Cartesian coordinates in Angstrom.
PRIMCOORD
 14 1
Hf     0.00000000000000     0.00000000000000     0.00000000000000
Hf     2.61382407635216     2.61382407635216     0.00000000000000
Hf     2.61382407635216     0.00000000000000     2.61382407635216
Hf     0.00000000000000     2.61382407635216     2.61382407635216
O     2.61382407635216     0.00000000000000     0.00000000000000
O     0.00000000000000     2.61382407635216     0.00000000000000
O     0.00000000000000     0.00000000000000     2.61382407635216
O     2.61382407635216     2.61382407635216     2.61382407635216
O     3.92073611452825     3.92073611452825     1.30691203817608
O     3.92073611452825     1.30691203817608     3.92073611452825
O     1.30691203817608     3.92073611452825     3.92073611452825
O     3.92073611452825     1.30691203817608     1.30691203817608
O     1.30691203817608     3.92073611452825     1.30691203817608
O     1.30691203817608     1.30691203817608     3.92073611452825