CRYSTAL
# Primitive lattice vectors in Angstrom
PRIMVEC
 5.50864317218922 0.00000000000000 0.00000000000000
 -0.00000000000000 5.50864317218922 0.00000000000000
 0.00000000000000 0.00000000000000 5.50864317218922
# Cartesian coordinates in Angstrom.
PRIMCOORD
 14 1
Hg     0.00000000000000     0.00000000000000     0.00000000000000
Hg     2.75432158609461     2.75432158609461     0.00000000000000
Hg     2.75432158609461     0.00000000000000     2.75432158609461
Hg     0.00000000000000     2.75432158609461     2.75432158609461
O     2.75432158609461     0.00000000000000     0.00000000000000
O     0.00000000000000     2.75432158609461     0.00000000000000
O     0.00000000000000     0.00000000000000     2.75432158609461
O     2.75432158609461     2.75432158609461     2.75432158609461
O     4.13148237914192     4.13148237914192     1.37716079304731
O     4.13148237914192     1.37716079304731     4.13148237914192
O     1.37716079304731     4.13148237914192     4.13148237914192
O     4.13148237914192     1.37716079304731     1.37716079304731
O     1.37716079304731     4.13148237914192     1.37716079304731
O     1.37716079304731     1.37716079304731     4.13148237914192