CRYSTAL
# Primitive lattice vectors in Angstrom
PRIMVEC
 5.34866602247387 0.00000000000000 0.00000000000000
 -0.00000000000000 5.34866602247387 0.00000000000000
 0.00000000000000 0.00000000000000 5.34866602247387
# Cartesian coordinates in Angstrom.
PRIMCOORD
 10 1
Hg     1.33716650561847     1.33716650561847     1.33716650561847
Hg     4.01149951685540     4.01149951685540     1.33716650561847
Hg     4.01149951685540     1.33716650561847     4.01149951685540
Hg     1.33716650561847     4.01149951685540     4.01149951685540
O     2.67433301123694     0.00000000000000     0.00000000000000
O     0.00000000000000     2.67433301123694     0.00000000000000
O     0.00000000000000     0.00000000000000     2.67433301123694
O     2.67433301123694     2.67433301123694     0.00000000000000
O     2.67433301123694     0.00000000000000     2.67433301123694
O     0.00000000000000     2.67433301123694     2.67433301123694