CRYSTAL
# Primitive lattice vectors in Angstrom
PRIMVEC
 5.40082125528469 0.00000000000000 0.00000000000000
 -0.00000000000000 5.40082125528469 0.00000000000000
 0.00000000000000 0.00000000000000 5.40082125528469
# Cartesian coordinates in Angstrom.
PRIMCOORD
 14 1
Ho     0.00000000000000     0.00000000000000     0.00000000000000
Ho     2.70041062764234     2.70041062764234     0.00000000000000
Ho     2.70041062764234     0.00000000000000     2.70041062764234
Ho     0.00000000000000     2.70041062764234     2.70041062764234
O     2.70041062764234     0.00000000000000     0.00000000000000
O     0.00000000000000     2.70041062764234     0.00000000000000
O     0.00000000000000     0.00000000000000     2.70041062764234
O     2.70041062764234     2.70041062764234     2.70041062764234
O     4.05061594146351     4.05061594146351     1.35020531382117
O     4.05061594146351     1.35020531382117     4.05061594146351
O     1.35020531382117     4.05061594146351     4.05061594146351
O     4.05061594146351     1.35020531382117     1.35020531382117
O     1.35020531382117     4.05061594146351     1.35020531382117
O     1.35020531382117     1.35020531382117     4.05061594146351