CRYSTAL
# Primitive lattice vectors in Angstrom
PRIMVEC
 4.18005664714401 0.00000000000000 0.00000000000000
 -0.00000000000000 4.18005664714401 0.00000000000000
 0.00000000000000 0.00000000000000 4.18005664714401
# Cartesian coordinates in Angstrom.
PRIMCOORD
 4 1
Ho     0.00000000000000     0.00000000000000     0.00000000000000
O     2.09002832357200     0.00000000000000     0.00000000000000
O     0.00000000000000     2.09002832357200     0.00000000000000
O     0.00000000000000     0.00000000000000     2.09002832357200