CRYSTAL
# Primitive lattice vectors in Angstrom
PRIMVEC
 5.31065975863445 0.00000000000000 0.00000000000000
 -0.00000000000000 5.31065975863445 0.00000000000000
 0.00000000000000 0.00000000000000 5.31065975863445
# Cartesian coordinates in Angstrom.
PRIMCOORD
 10 1
Ho     1.32766493965861     1.32766493965861     1.32766493965861
Ho     3.98299481897584     3.98299481897584     1.32766493965861
Ho     3.98299481897584     1.32766493965861     3.98299481897584
Ho     1.32766493965861     3.98299481897584     3.98299481897584
O     2.65532987931723     0.00000000000000     0.00000000000000
O     0.00000000000000     2.65532987931723     0.00000000000000
O     0.00000000000000     0.00000000000000     2.65532987931723
O     2.65532987931723     2.65532987931723     0.00000000000000
O     2.65532987931723     0.00000000000000     2.65532987931723
O     0.00000000000000     2.65532987931723     2.65532987931723