CRYSTAL
# Primitive lattice vectors in Angstrom
PRIMVEC
 5.51560472217202 0.00000000000000 0.00000000000000
 -0.00000000000000 5.51560472217202 0.00000000000000
 0.00000000000000 0.00000000000000 5.51560472217202
# Cartesian coordinates in Angstrom.
PRIMCOORD
 10 1
I     1.37890118054300     1.37890118054300     1.37890118054300
I     4.13670354162902     4.13670354162902     1.37890118054300
I     4.13670354162902     1.37890118054300     4.13670354162902
I     1.37890118054300     4.13670354162902     4.13670354162902
O     2.75780236108602     0.00000000000000     0.00000000000000
O     0.00000000000000     2.75780236108602     0.00000000000000
O     0.00000000000000     0.00000000000000     2.75780236108602
O     2.75780236108602     2.75780236108602     0.00000000000000
O     2.75780236108602     0.00000000000000     2.75780236108602
O     0.00000000000000     2.75780236108602     2.75780236108602