CRYSTAL
# Primitive lattice vectors in Angstrom
PRIMVEC
 5.46881813031961 0.00000000000000 0.00000000000000
 -0.00000000000000 5.46881813031961 0.00000000000000
 0.00000000000000 0.00000000000000 5.46881813031961
# Cartesian coordinates in Angstrom.
PRIMCOORD
 14 1
I     0.00000000000000     0.00000000000000     0.00000000000000
I     2.73440906515980     2.73440906515980     0.00000000000000
I     2.73440906515980     0.00000000000000     2.73440906515980
I     0.00000000000000     2.73440906515980     2.73440906515980
O     2.73440906515980     0.00000000000000     0.00000000000000
O     0.00000000000000     2.73440906515980     0.00000000000000
O     0.00000000000000     0.00000000000000     2.73440906515980
O     2.73440906515980     2.73440906515980     2.73440906515980
O     4.10161359773971     4.10161359773971     1.36720453257990
O     4.10161359773971     1.36720453257990     4.10161359773971
O     1.36720453257990     4.10161359773971     4.10161359773971
O     4.10161359773971     1.36720453257990     1.36720453257990
O     1.36720453257990     4.10161359773971     1.36720453257990
O     1.36720453257990     1.36720453257990     4.10161359773971