CRYSTAL
# Primitive lattice vectors in Angstrom
PRIMVEC
 3.94466464806617 0.00000000000000 0.00000000000000
 -0.00000000000000 3.94466464806617 0.00000000000000
 0.00000000000000 0.00000000000000 3.94466464806617
# Cartesian coordinates in Angstrom.
PRIMCOORD
 4 1
I     0.00000000000000     0.00000000000000     0.00000000000000
O     1.97233232403308     0.00000000000000     0.00000000000000
O     0.00000000000000     1.97233232403308     0.00000000000000
O     0.00000000000000     0.00000000000000     1.97233232403308