CRYSTAL
# Primitive lattice vectors in Angstrom
PRIMVEC
 5.19848397370270 0.00000000000000 0.00000000000000
 -0.00000000000000 5.19848397370270 0.00000000000000
 0.00000000000000 0.00000000000000 5.19848397370270
# Cartesian coordinates in Angstrom.
PRIMCOORD
 10 1
In     1.29962099342567     1.29962099342567     1.29962099342567
In     3.89886298027703     3.89886298027703     1.29962099342567
In     3.89886298027703     1.29962099342567     3.89886298027703
In     1.29962099342567     3.89886298027703     3.89886298027703
O     2.59924198685136     0.00000000000000     0.00000000000000
O     0.00000000000000     2.59924198685136     0.00000000000000
O     0.00000000000000     0.00000000000000     2.59924198685136
O     2.59924198685136     2.59924198685136     0.00000000000000
O     2.59924198685136     0.00000000000000     2.59924198685136
O     0.00000000000000     2.59924198685136     2.59924198685136