CRYSTAL
# Primitive lattice vectors in Angstrom
PRIMVEC
 5.39867571004395 0.00000000000000 0.00000000000000
 -0.00000000000000 5.39867571004395 0.00000000000000
 0.00000000000000 0.00000000000000 5.39867571004395
# Cartesian coordinates in Angstrom.
PRIMCOORD
 14 1
In     0.00000000000000     0.00000000000000     0.00000000000000
In     2.69933785502198     2.69933785502198     0.00000000000000
In     2.69933785502198     0.00000000000000     2.69933785502198
In     0.00000000000000     2.69933785502198     2.69933785502198
O     2.69933785502198     0.00000000000000     0.00000000000000
O     0.00000000000000     2.69933785502198     0.00000000000000
O     0.00000000000000     0.00000000000000     2.69933785502198
O     2.69933785502198     2.69933785502198     2.69933785502198
O     4.04900678253297     4.04900678253297     1.34966892751099
O     4.04900678253297     1.34966892751099     4.04900678253297
O     1.34966892751099     4.04900678253297     4.04900678253297
O     4.04900678253297     1.34966892751099     1.34966892751099
O     1.34966892751099     4.04900678253297     1.34966892751099
O     1.34966892751099     1.34966892751099     4.04900678253297