CRYSTAL
# Primitive lattice vectors in Angstrom
PRIMVEC
 4.81038625087384 0.00000000000000 0.00000000000000
 -0.00000000000000 4.81038625087384 0.00000000000000
 0.00000000000000 0.00000000000000 4.81038625087384
# Cartesian coordinates in Angstrom.
PRIMCOORD
 10 1
Ir     1.20259656271846     1.20259656271846     1.20259656271846
Ir     3.60778968815538     3.60778968815538     1.20259656271846
Ir     3.60778968815538     1.20259656271846     3.60778968815538
Ir     1.20259656271846     3.60778968815538     3.60778968815538
O     2.40519312543692     0.00000000000000     0.00000000000000
O     0.00000000000000     2.40519312543692     0.00000000000000
O     0.00000000000000     0.00000000000000     2.40519312543692
O     2.40519312543692     2.40519312543692     0.00000000000000
O     2.40519312543692     0.00000000000000     2.40519312543692
O     0.00000000000000     2.40519312543692     2.40519312543692