CRYSTAL
# Primitive lattice vectors in Angstrom
PRIMVEC
 3.78526737863771 0.00000000000000 0.00000000000000
 -0.00000000000000 3.78526737863771 0.00000000000000
 0.00000000000000 0.00000000000000 3.78526737863771
# Cartesian coordinates in Angstrom.
PRIMCOORD
 4 1
Ir     0.00000000000000     0.00000000000000     0.00000000000000
O     1.89263368931885     0.00000000000000     0.00000000000000
O     0.00000000000000     1.89263368931885     0.00000000000000
O     0.00000000000000     0.00000000000000     1.89263368931885