CRYSTAL
# Primitive lattice vectors in Angstrom
PRIMVEC
 5.08095925583865 0.00000000000000 0.00000000000000
 -0.00000000000000 5.08095925583865 0.00000000000000
 0.00000000000000 0.00000000000000 5.08095925583865
# Cartesian coordinates in Angstrom.
PRIMCOORD
 14 1
Ir     0.00000000000000     0.00000000000000     0.00000000000000
Ir     2.54047962791932     2.54047962791932     0.00000000000000
Ir     2.54047962791932     0.00000000000000     2.54047962791932
Ir     0.00000000000000     2.54047962791932     2.54047962791932
O     2.54047962791932     0.00000000000000     0.00000000000000
O     0.00000000000000     2.54047962791932     0.00000000000000
O     0.00000000000000     0.00000000000000     2.54047962791932
O     2.54047962791932     2.54047962791932     2.54047962791932
O     3.81071944187899     3.81071944187899     1.27023981395966
O     3.81071944187899     1.27023981395966     3.81071944187899
O     1.27023981395966     3.81071944187899     3.81071944187899
O     3.81071944187899     1.27023981395966     1.27023981395966
O     1.27023981395966     3.81071944187899     1.27023981395966
O     1.27023981395966     1.27023981395966     3.81071944187899