CRYSTAL
# Primitive lattice vectors in Angstrom
PRIMVEC
 5.85932566365347 0.00000000000000 0.00000000000000
 -0.00000000000000 5.85932566365347 0.00000000000000
 0.00000000000000 0.00000000000000 5.85932566365347
# Cartesian coordinates in Angstrom.
PRIMCOORD
 14 1
K     0.00000000000000     0.00000000000000     0.00000000000000
K     2.92966283182674     2.92966283182674     0.00000000000000
K     2.92966283182674     0.00000000000000     2.92966283182674
K     0.00000000000000     2.92966283182674     2.92966283182674
O     2.92966283182674     0.00000000000000     0.00000000000000
O     0.00000000000000     2.92966283182674     0.00000000000000
O     0.00000000000000     0.00000000000000     2.92966283182674
O     2.92966283182674     2.92966283182674     2.92966283182674
O     4.39449424774010     4.39449424774010     1.46483141591337
O     4.39449424774010     1.46483141591337     4.39449424774010
O     1.46483141591337     4.39449424774010     4.39449424774010
O     4.39449424774010     1.46483141591337     1.46483141591337
O     1.46483141591337     4.39449424774010     1.46483141591337
O     1.46483141591337     1.46483141591337     4.39449424774010