CRYSTAL
# Primitive lattice vectors in Angstrom
PRIMVEC
 6.15146281013192 0.00000000000000 0.00000000000000
 -0.00000000000000 6.15146281013192 0.00000000000000
 0.00000000000000 0.00000000000000 6.15146281013192
# Cartesian coordinates in Angstrom.
PRIMCOORD
 10 1
K     1.53786570253298     1.53786570253298     1.53786570253298
K     4.61359710759894     4.61359710759894     1.53786570253298
K     4.61359710759894     1.53786570253298     4.61359710759894
K     1.53786570253298     4.61359710759894     4.61359710759894
O     3.07573140506597     0.00000000000000     0.00000000000000
O     0.00000000000000     3.07573140506597     0.00000000000000
O     0.00000000000000     0.00000000000000     3.07573140506597
O     3.07573140506597     3.07573140506597     0.00000000000000
O     3.07573140506597     0.00000000000000     3.07573140506597
O     0.00000000000000     3.07573140506597     3.07573140506597