CRYSTAL
# Primitive lattice vectors in Angstrom
PRIMVEC
 5.34270330912185 0.00000000000000 0.00000000000000
 -0.00000000000000 5.34270330912185 0.00000000000000
 0.00000000000000 0.00000000000000 5.34270330912185
# Cartesian coordinates in Angstrom.
PRIMCOORD
 4 1
K     0.00000000000000     0.00000000000000     0.00000000000000
O     2.67135165456092     0.00000000000000     0.00000000000000
O     0.00000000000000     2.67135165456092     0.00000000000000
O     0.00000000000000     0.00000000000000     2.67135165456092