CRYSTAL
# Primitive lattice vectors in Angstrom
PRIMVEC
 4.08225389543906 0.00000000000000 0.00000000000000
 -0.00000000000000 4.08225389543906 0.00000000000000
 0.00000000000000 0.00000000000000 4.08225389543906
# Cartesian coordinates in Angstrom.
PRIMCOORD
 4 1
Kr     0.00000000000000     0.00000000000000     0.00000000000000
O     2.04112694771952     0.00000000000000     0.00000000000000
O     0.00000000000000     2.04112694771952     0.00000000000000
O     0.00000000000000     0.00000000000000     2.04112694771952