CRYSTAL
# Primitive lattice vectors in Angstrom
PRIMVEC
 5.79264818767910 0.00000000000000 0.00000000000000
 -0.00000000000000 5.79264818767910 0.00000000000000
 0.00000000000000 0.00000000000000 5.79264818767910
# Cartesian coordinates in Angstrom.
PRIMCOORD
 14 1
Kr     0.00000000000000     0.00000000000000     0.00000000000000
Kr     2.89632409383955     2.89632409383955     0.00000000000000
Kr     2.89632409383955     0.00000000000000     2.89632409383955
Kr     0.00000000000000     2.89632409383955     2.89632409383955
O     2.89632409383955     0.00000000000000     0.00000000000000
O     0.00000000000000     2.89632409383955     0.00000000000000
O     0.00000000000000     0.00000000000000     2.89632409383955
O     2.89632409383955     2.89632409383955     2.89632409383955
O     4.34448614075933     4.34448614075933     1.44816204691978
O     4.34448614075933     1.44816204691978     4.34448614075933
O     1.44816204691978     4.34448614075933     4.34448614075933
O     4.34448614075933     1.44816204691978     1.44816204691978
O     1.44816204691978     4.34448614075933     1.44816204691978
O     1.44816204691978     1.44816204691978     4.34448614075933