CRYSTAL
# Primitive lattice vectors in Angstrom
PRIMVEC
 5.84269512516421 0.00000000000000 0.00000000000000
 -0.00000000000000 5.84269512516421 0.00000000000000
 0.00000000000000 0.00000000000000 5.84269512516421
# Cartesian coordinates in Angstrom.
PRIMCOORD
 10 1
Kr     1.46067378129105     1.46067378129105     1.46067378129105
Kr     4.38202134387316     4.38202134387316     1.46067378129105
Kr     4.38202134387316     1.46067378129105     4.38202134387316
Kr     1.46067378129105     4.38202134387316     4.38202134387316
O     2.92134756258211     0.00000000000000     0.00000000000000
O     0.00000000000000     2.92134756258211     0.00000000000000
O     0.00000000000000     0.00000000000000     2.92134756258211
O     2.92134756258211     2.92134756258211     0.00000000000000
O     2.92134756258211     0.00000000000000     2.92134756258211
O     0.00000000000000     2.92134756258211     2.92134756258211