CRYSTAL
# Primitive lattice vectors in Angstrom
PRIMVEC
 5.75554941588844 0.00000000000000 0.00000000000000
 -0.00000000000000 5.75554941588844 0.00000000000000
 0.00000000000000 0.00000000000000 5.75554941588844
# Cartesian coordinates in Angstrom.
PRIMCOORD
 14 1
La     0.00000000000000     0.00000000000000     0.00000000000000
La     2.87777470794422     2.87777470794422     0.00000000000000
La     2.87777470794422     0.00000000000000     2.87777470794422
La     0.00000000000000     2.87777470794422     2.87777470794422
O     2.87777470794422     0.00000000000000     0.00000000000000
O     0.00000000000000     2.87777470794422     0.00000000000000
O     0.00000000000000     0.00000000000000     2.87777470794422
O     2.87777470794422     2.87777470794422     2.87777470794422
O     4.31666206191633     4.31666206191633     1.43888735397211
O     4.31666206191633     1.43888735397211     4.31666206191633
O     1.43888735397211     4.31666206191633     4.31666206191633
O     4.31666206191633     1.43888735397211     1.43888735397211
O     1.43888735397211     4.31666206191633     1.43888735397211
O     1.43888735397211     1.43888735397211     4.31666206191633