CRYSTAL
# Primitive lattice vectors in Angstrom
PRIMVEC
 5.67317271717752 0.00000000000000 0.00000000000000
 -0.00000000000000 5.67317271717752 0.00000000000000
 0.00000000000000 0.00000000000000 5.67317271717752
# Cartesian coordinates in Angstrom.
PRIMCOORD
 10 1
La     1.41829317929438     1.41829317929438     1.41829317929438
La     4.25487953788314     4.25487953788314     1.41829317929438
La     4.25487953788314     1.41829317929438     4.25487953788314
La     1.41829317929438     4.25487953788314     4.25487953788314
O     2.83658635858877     0.00000000000000     0.00000000000000
O     0.00000000000000     2.83658635858877     0.00000000000000
O     0.00000000000000     0.00000000000000     2.83658635858877
O     2.83658635858877     2.83658635858877     0.00000000000000
O     2.83658635858877     0.00000000000000     2.83658635858877
O     0.00000000000000     2.83658635858877     2.83658635858877