CRYSTAL
# Primitive lattice vectors in Angstrom
PRIMVEC
 4.98863107332581 0.00000000000000 0.00000000000000
 -0.00000000000000 4.98863107332581 0.00000000000000
 0.00000000000000 0.00000000000000 4.98863107332581
# Cartesian coordinates in Angstrom.
PRIMCOORD
 14 1
Li     0.00000000000000     0.00000000000000     0.00000000000000
Li     2.49431553666290     2.49431553666290     0.00000000000000
Li     2.49431553666290     0.00000000000000     2.49431553666290
Li     0.00000000000000     2.49431553666290     2.49431553666290
O     2.49431553666290     0.00000000000000     0.00000000000000
O     0.00000000000000     2.49431553666290     0.00000000000000
O     0.00000000000000     0.00000000000000     2.49431553666290
O     2.49431553666290     2.49431553666290     2.49431553666290
O     3.74147330499436     3.74147330499436     1.24715776833145
O     3.74147330499436     1.24715776833145     3.74147330499436
O     1.24715776833145     3.74147330499436     3.74147330499436
O     3.74147330499436     1.24715776833145     1.24715776833145
O     1.24715776833145     3.74147330499436     1.24715776833145
O     1.24715776833145     1.24715776833145     3.74147330499436