CRYSTAL
# Primitive lattice vectors in Angstrom
PRIMVEC
 4.48059351902652 0.00000000000000 0.00000000000000
 -0.00000000000000 4.48059351902652 0.00000000000000
 0.00000000000000 0.00000000000000 4.48059351902652
# Cartesian coordinates in Angstrom.
PRIMCOORD
 10 1
Li     1.12014837975663     1.12014837975663     1.12014837975663
Li     3.36044513926989     3.36044513926989     1.12014837975663
Li     3.36044513926989     1.12014837975663     3.36044513926989
Li     1.12014837975663     3.36044513926989     3.36044513926989
O     2.24029675951326     0.00000000000000     0.00000000000000
O     0.00000000000000     2.24029675951326     0.00000000000000
O     0.00000000000000     0.00000000000000     2.24029675951326
O     2.24029675951326     2.24029675951326     0.00000000000000
O     2.24029675951326     0.00000000000000     2.24029675951326
O     0.00000000000000     2.24029675951326     2.24029675951326