CRYSTAL
# Primitive lattice vectors in Angstrom
PRIMVEC
 3.60260001997336 0.00000000000000 0.00000000000000
 -0.00000000000000 3.60260001997336 0.00000000000000
 0.00000000000000 0.00000000000000 3.60260001997336
# Cartesian coordinates in Angstrom.
PRIMCOORD
 4 1
Li     0.00000000000000     0.00000000000000     0.00000000000000
O     1.80130000998667     0.00000000000000     0.00000000000000
O     0.00000000000000     1.80130000998667     0.00000000000000
O     0.00000000000000     0.00000000000000     1.80130000998667