CRYSTAL
# Primitive lattice vectors in Angstrom
PRIMVEC
 5.51925995535089 0.00000000000000 0.00000000000000
 -0.00000000000000 5.51925995535089 0.00000000000000
 0.00000000000000 0.00000000000000 5.51925995535089
# Cartesian coordinates in Angstrom.
PRIMCOORD
 14 1
Lr     0.00000000000000     0.00000000000000     0.00000000000000
Lr     2.75962997767544     2.75962997767544     0.00000000000000
Lr     2.75962997767544     0.00000000000000     2.75962997767544
Lr     0.00000000000000     2.75962997767544     2.75962997767544
O     2.75962997767544     0.00000000000000     0.00000000000000
O     0.00000000000000     2.75962997767544     0.00000000000000
O     0.00000000000000     0.00000000000000     2.75962997767544
O     2.75962997767544     2.75962997767544     2.75962997767544
O     4.13944496651317     4.13944496651317     1.37981498883772
O     4.13944496651317     1.37981498883772     4.13944496651317
O     1.37981498883772     4.13944496651317     4.13944496651317
O     4.13944496651317     1.37981498883772     1.37981498883772
O     1.37981498883772     4.13944496651317     1.37981498883772
O     1.37981498883772     1.37981498883772     4.13944496651317