CRYSTAL
# Primitive lattice vectors in Angstrom
PRIMVEC
 5.39254056832300 0.00000000000000 0.00000000000000
 -0.00000000000000 5.39254056832300 0.00000000000000
 0.00000000000000 0.00000000000000 5.39254056832300
# Cartesian coordinates in Angstrom.
PRIMCOORD
 10 1
Lr     1.34813514208075     1.34813514208075     1.34813514208075
Lr     4.04440542624225     4.04440542624225     1.34813514208075
Lr     4.04440542624225     1.34813514208075     4.04440542624225
Lr     1.34813514208075     4.04440542624225     4.04440542624225
O     2.69627028416150     0.00000000000000     0.00000000000000
O     0.00000000000000     2.69627028416150     0.00000000000000
O     0.00000000000000     0.00000000000000     2.69627028416150
O     2.69627028416150     2.69627028416150     0.00000000000000
O     2.69627028416150     0.00000000000000     2.69627028416150
O     0.00000000000000     2.69627028416150     2.69627028416150