CRYSTAL
# Primitive lattice vectors in Angstrom
PRIMVEC
 4.38742940219615 0.00000000000000 0.00000000000000
 -0.00000000000000 4.38742940219615 0.00000000000000
 0.00000000000000 0.00000000000000 4.38742940219615
# Cartesian coordinates in Angstrom.
PRIMCOORD
 4 1
Lr     0.00000000000000     0.00000000000000     0.00000000000000
O     2.19371470109807     0.00000000000000     0.00000000000000
O     0.00000000000000     2.19371470109807     0.00000000000000
O     0.00000000000000     0.00000000000000     2.19371470109807