CRYSTAL
# Primitive lattice vectors in Angstrom
PRIMVEC
 5.41068319368138 0.00000000000000 0.00000000000000
 -0.00000000000000 5.41068319368138 0.00000000000000
 0.00000000000000 0.00000000000000 5.41068319368138
# Cartesian coordinates in Angstrom.
PRIMCOORD
 14 1
Lu     0.00000000000000     0.00000000000000     0.00000000000000
Lu     2.70534159684069     2.70534159684069     0.00000000000000
Lu     2.70534159684069     0.00000000000000     2.70534159684069
Lu     0.00000000000000     2.70534159684069     2.70534159684069
O     2.70534159684069     0.00000000000000     0.00000000000000
O     0.00000000000000     2.70534159684069     0.00000000000000
O     0.00000000000000     0.00000000000000     2.70534159684069
O     2.70534159684069     2.70534159684069     2.70534159684069
O     4.05801239526104     4.05801239526104     1.35267079842034
O     4.05801239526104     1.35267079842034     4.05801239526104
O     1.35267079842034     4.05801239526104     4.05801239526104
O     4.05801239526104     1.35267079842034     1.35267079842034
O     1.35267079842034     4.05801239526104     1.35267079842034
O     1.35267079842034     1.35267079842034     4.05801239526104