CRYSTAL
# Primitive lattice vectors in Angstrom
PRIMVEC
 5.24632887903764 0.00000000000000 0.00000000000000
 -0.00000000000000 5.24632887903764 0.00000000000000
 0.00000000000000 0.00000000000000 5.24632887903764
# Cartesian coordinates in Angstrom.
PRIMCOORD
 10 1
Lu     1.31158221975941     1.31158221975941     1.31158221975941
Lu     3.93474665927823     3.93474665927823     1.31158221975941
Lu     3.93474665927823     1.31158221975941     3.93474665927823
Lu     1.31158221975941     3.93474665927823     3.93474665927823
O     2.62316443951882     0.00000000000000     0.00000000000000
O     0.00000000000000     2.62316443951882     0.00000000000000
O     0.00000000000000     0.00000000000000     2.62316443951882
O     2.62316443951882     2.62316443951882     0.00000000000000
O     2.62316443951882     0.00000000000000     2.62316443951882
O     0.00000000000000     2.62316443951882     2.62316443951882