CRYSTAL
# Primitive lattice vectors in Angstrom
PRIMVEC
 4.27820779959401 0.00000000000000 0.00000000000000
 -0.00000000000000 4.27820779959401 0.00000000000000
 0.00000000000000 0.00000000000000 4.27820779959401
# Cartesian coordinates in Angstrom.
PRIMCOORD
 4 1
Lu     0.00000000000000     0.00000000000000     0.00000000000000
O     2.13910389979700     0.00000000000000     0.00000000000000
O     0.00000000000000     2.13910389979700     0.00000000000000
O     0.00000000000000     0.00000000000000     2.13910389979700