CRYSTAL
# Primitive lattice vectors in Angstrom
PRIMVEC
 5.46582456462759 0.00000000000000 0.00000000000000
 -0.00000000000000 5.46582456462759 0.00000000000000
 0.00000000000000 0.00000000000000 5.46582456462759
# Cartesian coordinates in Angstrom.
PRIMCOORD
 14 1
Md     0.00000000000000     0.00000000000000     0.00000000000000
Md     2.73291228231379     2.73291228231379     0.00000000000000
Md     2.73291228231379     0.00000000000000     2.73291228231379
Md     0.00000000000000     2.73291228231379     2.73291228231379
O     2.73291228231379     0.00000000000000     0.00000000000000
O     0.00000000000000     2.73291228231379     0.00000000000000
O     0.00000000000000     0.00000000000000     2.73291228231379
O     2.73291228231379     2.73291228231379     2.73291228231379
O     4.09936842347069     4.09936842347069     1.36645614115690
O     4.09936842347069     1.36645614115690     4.09936842347069
O     1.36645614115690     4.09936842347069     4.09936842347069
O     4.09936842347069     1.36645614115690     1.36645614115690
O     1.36645614115690     4.09936842347069     1.36645614115690
O     1.36645614115690     1.36645614115690     4.09936842347069