CRYSTAL
# Primitive lattice vectors in Angstrom
PRIMVEC
 5.39188263134960 0.00000000000000 0.00000000000000
 -0.00000000000000 5.39188263134960 0.00000000000000
 0.00000000000000 0.00000000000000 5.39188263134960
# Cartesian coordinates in Angstrom.
PRIMCOORD
 10 1
Md     1.34797065783740     1.34797065783740     1.34797065783740
Md     4.04391197351220     4.04391197351220     1.34797065783740
Md     4.04391197351220     1.34797065783740     4.04391197351220
Md     1.34797065783740     4.04391197351220     4.04391197351220
O     2.69594131567480     0.00000000000000     0.00000000000000
O     0.00000000000000     2.69594131567480     0.00000000000000
O     0.00000000000000     0.00000000000000     2.69594131567480
O     2.69594131567480     2.69594131567480     0.00000000000000
O     2.69594131567480     0.00000000000000     2.69594131567480
O     0.00000000000000     2.69594131567480     2.69594131567480