CRYSTAL
# Primitive lattice vectors in Angstrom
PRIMVEC
 4.20811265586806 0.00000000000000 0.00000000000000
 -0.00000000000000 4.20811265586806 0.00000000000000
 0.00000000000000 0.00000000000000 4.20811265586806
# Cartesian coordinates in Angstrom.
PRIMCOORD
 4 1
Md     0.00000000000000     0.00000000000000     0.00000000000000
O     2.10405632793403     0.00000000000000     0.00000000000000
O     0.00000000000000     2.10405632793403     0.00000000000000
O     0.00000000000000     0.00000000000000     2.10405632793403