CRYSTAL
# Primitive lattice vectors in Angstrom
PRIMVEC
 4.85007403886989 0.00000000000000 0.00000000000000
 -0.00000000000000 4.85007403886989 0.00000000000000
 0.00000000000000 0.00000000000000 4.85007403886989
# Cartesian coordinates in Angstrom.
PRIMCOORD
 10 1
Mg     1.21251850971747     1.21251850971747     1.21251850971747
Mg     3.63755552915242     3.63755552915242     1.21251850971747
Mg     3.63755552915242     1.21251850971747     3.63755552915242
Mg     1.21251850971747     3.63755552915242     3.63755552915242
O     2.42503701943495     0.00000000000000     0.00000000000000
O     0.00000000000000     2.42503701943495     0.00000000000000
O     0.00000000000000     0.00000000000000     2.42503701943495
O     2.42503701943495     2.42503701943495     0.00000000000000
O     2.42503701943495     0.00000000000000     2.42503701943495
O     0.00000000000000     2.42503701943495     2.42503701943495