CRYSTAL
# Primitive lattice vectors in Angstrom
PRIMVEC
 5.18491508628512 0.00000000000000 0.00000000000000
 -0.00000000000000 5.18491508628512 0.00000000000000
 0.00000000000000 0.00000000000000 5.18491508628512
# Cartesian coordinates in Angstrom.
PRIMCOORD
 14 1
Mg     0.00000000000000     0.00000000000000     0.00000000000000
Mg     2.59245754314256     2.59245754314256     0.00000000000000
Mg     2.59245754314256     0.00000000000000     2.59245754314256
Mg     0.00000000000000     2.59245754314256     2.59245754314256
O     2.59245754314256     0.00000000000000     0.00000000000000
O     0.00000000000000     2.59245754314256     0.00000000000000
O     0.00000000000000     0.00000000000000     2.59245754314256
O     2.59245754314256     2.59245754314256     2.59245754314256
O     3.88868631471384     3.88868631471384     1.29622877157128
O     3.88868631471384     1.29622877157128     3.88868631471384
O     1.29622877157128     3.88868631471384     3.88868631471384
O     3.88868631471384     1.29622877157128     1.29622877157128
O     1.29622877157128     3.88868631471384     1.29622877157128
O     1.29622877157128     1.29622877157128     3.88868631471384