CRYSTAL
# Primitive lattice vectors in Angstrom
PRIMVEC
 3.97451978200346 0.00000000000000 0.00000000000000
 -0.00000000000000 3.97451978200346 0.00000000000000
 0.00000000000000 0.00000000000000 3.97451978200346
# Cartesian coordinates in Angstrom.
PRIMCOORD
 4 1
Mg     0.00000000000000     0.00000000000000     0.00000000000000
O     1.98725989100173     0.00000000000000     0.00000000000000
O     0.00000000000000     1.98725989100173     0.00000000000000
O     0.00000000000000     0.00000000000000     1.98725989100173