CRYSTAL
# Primitive lattice vectors in Angstrom
PRIMVEC
 4.53664635058426 0.00000000000000 0.00000000000000
 -0.00000000000000 4.53664635058426 0.00000000000000
 0.00000000000000 0.00000000000000 4.53664635058426
# Cartesian coordinates in Angstrom.
PRIMCOORD
 10 1
Mn     1.13416158764606     1.13416158764606     1.13416158764606
Mn     3.40248476293819     3.40248476293819     1.13416158764606
Mn     3.40248476293819     1.13416158764606     3.40248476293819
Mn     1.13416158764606     3.40248476293819     3.40248476293819
O     2.26832317529213     0.00000000000000     0.00000000000000
O     0.00000000000000     2.26832317529213     0.00000000000000
O     0.00000000000000     0.00000000000000     2.26832317529213
O     2.26832317529213     2.26832317529213     0.00000000000000
O     2.26832317529213     0.00000000000000     2.26832317529213
O     0.00000000000000     2.26832317529213     2.26832317529213