CRYSTAL
# Primitive lattice vectors in Angstrom
PRIMVEC
 3.57512083434070 0.00000000000000 0.00000000000000
 -0.00000000000000 3.57512083434070 0.00000000000000
 0.00000000000000 0.00000000000000 3.57512083434070
# Cartesian coordinates in Angstrom.
PRIMCOORD
 4 1
Mn     0.00000000000000     0.00000000000000     0.00000000000000
O     1.78756041717034     0.00000000000000     0.00000000000000
O     0.00000000000000     1.78756041717034     0.00000000000000
O     0.00000000000000     0.00000000000000     1.78756041717034