CRYSTAL
# Primitive lattice vectors in Angstrom
PRIMVEC
 4.87335546454305 0.00000000000000 0.00000000000000
 -0.00000000000000 4.87335546454305 0.00000000000000
 0.00000000000000 0.00000000000000 4.87335546454305
# Cartesian coordinates in Angstrom.
PRIMCOORD
 14 1
Mn     0.00000000000000     0.00000000000000     0.00000000000000
Mn     2.43667773227152     2.43667773227152     0.00000000000000
Mn     2.43667773227152     0.00000000000000     2.43667773227152
Mn     0.00000000000000     2.43667773227152     2.43667773227152
O     2.43667773227152     0.00000000000000     0.00000000000000
O     0.00000000000000     2.43667773227152     0.00000000000000
O     0.00000000000000     0.00000000000000     2.43667773227152
O     2.43667773227152     2.43667773227152     2.43667773227152
O     3.65501659840729     3.65501659840729     1.21833886613576
O     3.65501659840729     1.21833886613576     3.65501659840729
O     1.21833886613576     3.65501659840729     3.65501659840729
O     3.65501659840729     1.21833886613576     1.21833886613576
O     1.21833886613576     3.65501659840729     1.21833886613576
O     1.21833886613576     1.21833886613576     3.65501659840729