CRYSTAL
# Primitive lattice vectors in Angstrom
PRIMVEC
 5.01292502373394 0.00000000000000 0.00000000000000
 -0.00000000000000 5.01292502373394 0.00000000000000
 0.00000000000000 0.00000000000000 5.01292502373394
# Cartesian coordinates in Angstrom.
PRIMCOORD
 14 1
Mo     0.00000000000000     0.00000000000000     0.00000000000000
Mo     2.50646251186697     2.50646251186697     0.00000000000000
Mo     2.50646251186697     0.00000000000000     2.50646251186697
Mo     0.00000000000000     2.50646251186697     2.50646251186697
O     2.50646251186697     0.00000000000000     0.00000000000000
O     0.00000000000000     2.50646251186697     0.00000000000000
O     0.00000000000000     0.00000000000000     2.50646251186697
O     2.50646251186697     2.50646251186697     2.50646251186697
O     3.75969376780045     3.75969376780045     1.25323125593348
O     3.75969376780045     1.25323125593348     3.75969376780045
O     1.25323125593348     3.75969376780045     3.75969376780045
O     3.75969376780045     1.25323125593348     1.25323125593348
O     1.25323125593348     3.75969376780045     1.25323125593348
O     1.25323125593348     1.25323125593348     3.75969376780045