CRYSTAL
# Primitive lattice vectors in Angstrom
PRIMVEC
 4.84625247363842 0.00000000000000 0.00000000000000
 -0.00000000000000 4.84625247363842 0.00000000000000
 0.00000000000000 0.00000000000000 4.84625247363842
# Cartesian coordinates in Angstrom.
PRIMCOORD
 10 1
Mo     1.21156311840960     1.21156311840960     1.21156311840960
Mo     3.63468935522881     3.63468935522881     1.21156311840960
Mo     3.63468935522881     1.21156311840960     3.63468935522881
Mo     1.21156311840960     3.63468935522881     3.63468935522881
O     2.42312623681921     0.00000000000000     0.00000000000000
O     0.00000000000000     2.42312623681921     0.00000000000000
O     0.00000000000000     0.00000000000000     2.42312623681921
O     2.42312623681921     2.42312623681921     0.00000000000000
O     2.42312623681921     0.00000000000000     2.42312623681921
O     0.00000000000000     2.42312623681921     2.42312623681921