CRYSTAL
# Primitive lattice vectors in Angstrom
PRIMVEC
 3.81774100785961 0.00000000000000 0.00000000000000
 -0.00000000000000 3.81774100785961 0.00000000000000
 0.00000000000000 0.00000000000000 3.81774100785961
# Cartesian coordinates in Angstrom.
PRIMCOORD
 4 1
Mo     0.00000000000000     0.00000000000000     0.00000000000000
O     1.90887050392980     0.00000000000000     0.00000000000000
O     0.00000000000000     1.90887050392980     0.00000000000000
O     0.00000000000000     0.00000000000000     1.90887050392980