CRYSTAL
# Primitive lattice vectors in Angstrom
PRIMVEC
 4.50455804871318 0.00000000000000 0.00000000000000
 -0.00000000000000 4.50455804871318 0.00000000000000
 0.00000000000000 0.00000000000000 4.50455804871318
# Cartesian coordinates in Angstrom.
PRIMCOORD
 10 1
N     1.12613951217829     1.12613951217829     1.12613951217829
N     3.37841853653489     3.37841853653489     1.12613951217829
N     3.37841853653489     1.12613951217829     3.37841853653489
N     1.12613951217829     3.37841853653489     3.37841853653489
O     2.25227902435659     0.00000000000000     0.00000000000000
O     0.00000000000000     2.25227902435659     0.00000000000000
O     0.00000000000000     0.00000000000000     2.25227902435659
O     2.25227902435659     2.25227902435659     0.00000000000000
O     2.25227902435659     0.00000000000000     2.25227902435659
O     0.00000000000000     2.25227902435659     2.25227902435659