CRYSTAL
# Primitive lattice vectors in Angstrom
PRIMVEC
 4.85886163306326 0.00000000000000 0.00000000000000
 -0.00000000000000 4.85886163306326 0.00000000000000
 0.00000000000000 0.00000000000000 4.85886163306326
# Cartesian coordinates in Angstrom.
PRIMCOORD
 14 1
N     0.00000000000000     0.00000000000000     0.00000000000000
N     2.42943081653163     2.42943081653163     0.00000000000000
N     2.42943081653163     0.00000000000000     2.42943081653163
N     0.00000000000000     2.42943081653163     2.42943081653163
O     2.42943081653163     0.00000000000000     0.00000000000000
O     0.00000000000000     2.42943081653163     0.00000000000000
O     0.00000000000000     0.00000000000000     2.42943081653163
O     2.42943081653163     2.42943081653163     2.42943081653163
O     3.64414622479745     3.64414622479745     1.21471540826582
O     3.64414622479745     1.21471540826582     3.64414622479745
O     1.21471540826582     3.64414622479745     3.64414622479745
O     3.64414622479745     1.21471540826582     1.21471540826582
O     1.21471540826582     3.64414622479745     1.21471540826582
O     1.21471540826582     1.21471540826582     3.64414622479745