CRYSTAL
# Primitive lattice vectors in Angstrom
PRIMVEC
 3.42083397059736 0.00000000000000 0.00000000000000
 -0.00000000000000 3.42083397059736 0.00000000000000
 0.00000000000000 0.00000000000000 3.42083397059736
# Cartesian coordinates in Angstrom.
PRIMCOORD
 4 1
N     0.00000000000000     0.00000000000000     0.00000000000000
O     1.71041698529867     0.00000000000000     0.00000000000000
O     0.00000000000000     1.71041698529867     0.00000000000000
O     0.00000000000000     0.00000000000000     1.71041698529867