CRYSTAL
# Primitive lattice vectors in Angstrom
PRIMVEC
 4.40990360658268 0.00000000000000 0.00000000000000
 -0.00000000000000 4.40990360658268 0.00000000000000
 0.00000000000000 0.00000000000000 4.40990360658268
# Cartesian coordinates in Angstrom.
PRIMCOORD
 4 1
Na     0.00000000000000     0.00000000000000     0.00000000000000
O     2.20495180329134     0.00000000000000     0.00000000000000
O     0.00000000000000     2.20495180329134     0.00000000000000
O     0.00000000000000     0.00000000000000     2.20495180329134