CRYSTAL
# Primitive lattice vectors in Angstrom
PRIMVEC
 5.23181265118160 0.00000000000000 0.00000000000000
 -0.00000000000000 5.23181265118160 0.00000000000000
 0.00000000000000 0.00000000000000 5.23181265118160
# Cartesian coordinates in Angstrom.
PRIMCOORD
 10 1
Na     1.30795316279540     1.30795316279540     1.30795316279540
Na     3.92385948838620     3.92385948838620     1.30795316279540
Na     3.92385948838620     1.30795316279540     3.92385948838620
Na     1.30795316279540     3.92385948838620     3.92385948838620
O     2.61590632559080     0.00000000000000     0.00000000000000
O     0.00000000000000     2.61590632559080     0.00000000000000
O     0.00000000000000     0.00000000000000     2.61590632559080
O     2.61590632559080     2.61590632559080     0.00000000000000
O     2.61590632559080     0.00000000000000     2.61590632559080
O     0.00000000000000     2.61590632559080     2.61590632559080