CRYSTAL
# Primitive lattice vectors in Angstrom
PRIMVEC
 5.30940802523725 0.00000000000000 0.00000000000000
 -0.00000000000000 5.30940802523725 0.00000000000000
 0.00000000000000 0.00000000000000 5.30940802523725
# Cartesian coordinates in Angstrom.
PRIMCOORD
 14 1
Na     0.00000000000000     0.00000000000000     0.00000000000000
Na     2.65470401261862     2.65470401261862     0.00000000000000
Na     2.65470401261862     0.00000000000000     2.65470401261862
Na     0.00000000000000     2.65470401261862     2.65470401261862
O     2.65470401261862     0.00000000000000     0.00000000000000
O     0.00000000000000     2.65470401261862     0.00000000000000
O     0.00000000000000     0.00000000000000     2.65470401261862
O     2.65470401261862     2.65470401261862     2.65470401261862
O     3.98205601892793     3.98205601892793     1.32735200630931
O     3.98205601892793     1.32735200630931     3.98205601892793
O     1.32735200630931     3.98205601892793     3.98205601892793
O     3.98205601892793     1.32735200630931     1.32735200630931
O     1.32735200630931     3.98205601892793     1.32735200630931
O     1.32735200630931     1.32735200630931     3.98205601892793