CRYSTAL
# Primitive lattice vectors in Angstrom
PRIMVEC
 5.08667481970140 0.00000000000000 0.00000000000000
 -0.00000000000000 5.08667481970140 0.00000000000000
 0.00000000000000 0.00000000000000 5.08667481970140
# Cartesian coordinates in Angstrom.
PRIMCOORD
 14 1
Nb     0.00000000000000     0.00000000000000     0.00000000000000
Nb     2.54333740985070     2.54333740985070     0.00000000000000
Nb     2.54333740985070     0.00000000000000     2.54333740985070
Nb     0.00000000000000     2.54333740985070     2.54333740985070
O     2.54333740985070     0.00000000000000     0.00000000000000
O     0.00000000000000     2.54333740985070     0.00000000000000
O     0.00000000000000     0.00000000000000     2.54333740985070
O     2.54333740985070     2.54333740985070     2.54333740985070
O     3.81500611477605     3.81500611477605     1.27166870492535
O     3.81500611477605     1.27166870492535     3.81500611477605
O     1.27166870492535     3.81500611477605     3.81500611477605
O     3.81500611477605     1.27166870492535     1.27166870492535
O     1.27166870492535     3.81500611477605     1.27166870492535
O     1.27166870492535     1.27166870492535     3.81500611477605