CRYSTAL
# Primitive lattice vectors in Angstrom
PRIMVEC
 3.95129145340579 0.00000000000000 0.00000000000000
 -0.00000000000000 3.95129145340579 0.00000000000000
 0.00000000000000 0.00000000000000 3.95129145340579
# Cartesian coordinates in Angstrom.
PRIMCOORD
 4 1
Nb     0.00000000000000     0.00000000000000     0.00000000000000
O     1.97564572670289     0.00000000000000     0.00000000000000
O     0.00000000000000     1.97564572670289     0.00000000000000
O     0.00000000000000     0.00000000000000     1.97564572670289