CRYSTAL
# Primitive lattice vectors in Angstrom
PRIMVEC
 4.93749132566004 0.00000000000000 0.00000000000000
 -0.00000000000000 4.93749132566004 0.00000000000000
 0.00000000000000 0.00000000000000 4.93749132566004
# Cartesian coordinates in Angstrom.
PRIMCOORD
 10 1
Nb     1.23437283141501     1.23437283141501     1.23437283141501
Nb     3.70311849424503     3.70311849424503     1.23437283141501
Nb     3.70311849424503     1.23437283141501     3.70311849424503
Nb     1.23437283141501     3.70311849424503     3.70311849424503
O     2.46874566283003     0.00000000000000     0.00000000000000
O     0.00000000000000     2.46874566283003     0.00000000000000
O     0.00000000000000     0.00000000000000     2.46874566283003
O     2.46874566283003     2.46874566283003     0.00000000000000
O     2.46874566283003     0.00000000000000     2.46874566283003
O     0.00000000000000     2.46874566283003     2.46874566283003