CRYSTAL
# Primitive lattice vectors in Angstrom
PRIMVEC
 5.41838542751778 0.00000000000000 0.00000000000000
 -0.00000000000000 5.41838542751778 0.00000000000000
 0.00000000000000 0.00000000000000 5.41838542751778
# Cartesian coordinates in Angstrom.
PRIMCOORD
 10 1
Nd     1.35459635687944     1.35459635687944     1.35459635687944
Nd     4.06378907063834     4.06378907063834     1.35459635687944
Nd     4.06378907063834     1.35459635687944     4.06378907063834
Nd     1.35459635687944     4.06378907063834     4.06378907063834
O     2.70919271375889     0.00000000000000     0.00000000000000
O     0.00000000000000     2.70919271375889     0.00000000000000
O     0.00000000000000     0.00000000000000     2.70919271375889
O     2.70919271375889     2.70919271375889     0.00000000000000
O     2.70919271375889     0.00000000000000     2.70919271375889
O     0.00000000000000     2.70919271375889     2.70919271375889