CRYSTAL
# Primitive lattice vectors in Angstrom
PRIMVEC
 5.43578097443928 0.00000000000000 0.00000000000000
 -0.00000000000000 5.43578097443928 0.00000000000000
 0.00000000000000 0.00000000000000 5.43578097443928
# Cartesian coordinates in Angstrom.
PRIMCOORD
 14 1
Nd     0.00000000000000     0.00000000000000     0.00000000000000
Nd     2.71789048721964     2.71789048721964     0.00000000000000
Nd     2.71789048721964     0.00000000000000     2.71789048721964
Nd     0.00000000000000     2.71789048721964     2.71789048721964
O     2.71789048721964     0.00000000000000     0.00000000000000
O     0.00000000000000     2.71789048721964     0.00000000000000
O     0.00000000000000     0.00000000000000     2.71789048721964
O     2.71789048721964     2.71789048721964     2.71789048721964
O     4.07683573082946     4.07683573082946     1.35894524360982
O     4.07683573082946     1.35894524360982     4.07683573082946
O     1.35894524360982     4.07683573082946     4.07683573082946
O     4.07683573082946     1.35894524360982     1.35894524360982
O     1.35894524360982     4.07683573082946     1.35894524360982
O     1.35894524360982     1.35894524360982     4.07683573082946