CRYSTAL
# Primitive lattice vectors in Angstrom
PRIMVEC
 4.53192081241897 0.00000000000000 0.00000000000000
 -0.00000000000000 4.53192081241897 0.00000000000000
 0.00000000000000 0.00000000000000 4.53192081241897
# Cartesian coordinates in Angstrom.
PRIMCOORD
 4 1
Ne     0.00000000000000     0.00000000000000     0.00000000000000
O     2.26596040620948     0.00000000000000     0.00000000000000
O     0.00000000000000     2.26596040620948     0.00000000000000
O     0.00000000000000     0.00000000000000     2.26596040620948