CRYSTAL
# Primitive lattice vectors in Angstrom
PRIMVEC
 5.55492487681927 0.00000000000000 0.00000000000000
 -0.00000000000000 5.55492487681927 0.00000000000000
 0.00000000000000 0.00000000000000 5.55492487681927
# Cartesian coordinates in Angstrom.
PRIMCOORD
 10 1
Ne     1.38873121920481     1.38873121920481     1.38873121920481
Ne     4.16619365761445     4.16619365761445     1.38873121920481
Ne     4.16619365761445     1.38873121920481     4.16619365761445
Ne     1.38873121920481     4.16619365761445     4.16619365761445
O     2.77746243840964     0.00000000000000     0.00000000000000
O     0.00000000000000     2.77746243840964     0.00000000000000
O     0.00000000000000     0.00000000000000     2.77746243840964
O     2.77746243840964     2.77746243840964     0.00000000000000
O     2.77746243840964     0.00000000000000     2.77746243840964
O     0.00000000000000     2.77746243840964     2.77746243840964