CRYSTAL
# Primitive lattice vectors in Angstrom
PRIMVEC
 5.18876459792658 0.00000000000000 0.00000000000000
 -0.00000000000000 5.18876459792658 0.00000000000000
 0.00000000000000 0.00000000000000 5.18876459792658
# Cartesian coordinates in Angstrom.
PRIMCOORD
 14 1
Ne     0.00000000000000     0.00000000000000     0.00000000000000
Ne     2.59438229896329     2.59438229896329     0.00000000000000
Ne     2.59438229896329     0.00000000000000     2.59438229896329
Ne     0.00000000000000     2.59438229896329     2.59438229896329
O     2.59438229896329     0.00000000000000     0.00000000000000
O     0.00000000000000     2.59438229896329     0.00000000000000
O     0.00000000000000     0.00000000000000     2.59438229896329
O     2.59438229896329     2.59438229896329     2.59438229896329
O     3.89157344844494     3.89157344844494     1.29719114948165
O     3.89157344844494     1.29719114948165     3.89157344844494
O     1.29719114948165     3.89157344844494     3.89157344844494
O     3.89157344844494     1.29719114948165     1.29719114948165
O     1.29719114948165     3.89157344844494     1.29719114948165
O     1.29719114948165     1.29719114948165     3.89157344844494