CRYSTAL
# Primitive lattice vectors in Angstrom
PRIMVEC
 4.95894219172011 0.00000000000000 0.00000000000000
 -0.00000000000000 4.95894219172011 0.00000000000000
 0.00000000000000 0.00000000000000 4.95894219172011
# Cartesian coordinates in Angstrom.
PRIMCOORD
 14 1
Ni     0.00000000000000     0.00000000000000     0.00000000000000
Ni     2.47947109586006     2.47947109586006     0.00000000000000
Ni     2.47947109586006     0.00000000000000     2.47947109586006
Ni     0.00000000000000     2.47947109586006     2.47947109586006
O     2.47947109586006     0.00000000000000     0.00000000000000
O     0.00000000000000     2.47947109586006     0.00000000000000
O     0.00000000000000     0.00000000000000     2.47947109586006
O     2.47947109586006     2.47947109586006     2.47947109586006
O     3.71920664379008     3.71920664379008     1.23973554793003
O     3.71920664379008     1.23973554793003     3.71920664379008
O     1.23973554793003     3.71920664379008     3.71920664379008
O     3.71920664379008     1.23973554793003     1.23973554793003
O     1.23973554793003     3.71920664379008     1.23973554793003
O     1.23973554793003     1.23973554793003     3.71920664379008