CRYSTAL
# Primitive lattice vectors in Angstrom
PRIMVEC
 3.67363951173125 0.00000000000000 0.00000000000000
 -0.00000000000000 3.67363951173125 0.00000000000000
 0.00000000000000 0.00000000000000 3.67363951173125
# Cartesian coordinates in Angstrom.
PRIMCOORD
 4 1
Ni     0.00000000000000     0.00000000000000     0.00000000000000
O     1.83681975586562     0.00000000000000     0.00000000000000
O     0.00000000000000     1.83681975586562     0.00000000000000
O     0.00000000000000     0.00000000000000     1.83681975586562