CRYSTAL
# Primitive lattice vectors in Angstrom
PRIMVEC
 4.57983908279613 0.00000000000000 0.00000000000000
 -0.00000000000000 4.57983908279613 0.00000000000000
 0.00000000000000 0.00000000000000 4.57983908279613
# Cartesian coordinates in Angstrom.
PRIMCOORD
 10 1
Ni     1.14495977069903     1.14495977069903     1.14495977069903
Ni     3.43487931209710     3.43487931209710     1.14495977069903
Ni     3.43487931209710     1.14495977069903     3.43487931209710
Ni     1.14495977069903     3.43487931209710     3.43487931209710
O     2.28991954139807     0.00000000000000     0.00000000000000
O     0.00000000000000     2.28991954139807     0.00000000000000
O     0.00000000000000     0.00000000000000     2.28991954139807
O     2.28991954139807     2.28991954139807     0.00000000000000
O     2.28991954139807     0.00000000000000     2.28991954139807
O     0.00000000000000     2.28991954139807     2.28991954139807