CRYSTAL
# Primitive lattice vectors in Angstrom
PRIMVEC
 5.45820318582739 0.00000000000000 0.00000000000000
 -0.00000000000000 5.45820318582739 0.00000000000000
 0.00000000000000 0.00000000000000 5.45820318582739
# Cartesian coordinates in Angstrom.
PRIMCOORD
 10 1
No     1.36455079645684     1.36455079645684     1.36455079645684
No     4.09365238937054     4.09365238937054     1.36455079645684
No     4.09365238937054     1.36455079645684     4.09365238937054
No     1.36455079645684     4.09365238937054     4.09365238937054
O     2.72910159291370     0.00000000000000     0.00000000000000
O     0.00000000000000     2.72910159291370     0.00000000000000
O     0.00000000000000     0.00000000000000     2.72910159291370
O     2.72910159291370     2.72910159291370     0.00000000000000
O     2.72910159291370     0.00000000000000     2.72910159291370
O     0.00000000000000     2.72910159291370     2.72910159291370