CRYSTAL
# Primitive lattice vectors in Angstrom
PRIMVEC
 5.53800234599009 0.00000000000000 0.00000000000000
 -0.00000000000000 5.53800234599009 0.00000000000000
 0.00000000000000 0.00000000000000 5.53800234599009
# Cartesian coordinates in Angstrom.
PRIMCOORD
 14 1
No     0.00000000000000     0.00000000000000     0.00000000000000
No     2.76900117299505     2.76900117299505     0.00000000000000
No     2.76900117299505     0.00000000000000     2.76900117299505
No     0.00000000000000     2.76900117299505     2.76900117299505
O     2.76900117299505     0.00000000000000     0.00000000000000
O     0.00000000000000     2.76900117299505     0.00000000000000
O     0.00000000000000     0.00000000000000     2.76900117299505
O     2.76900117299505     2.76900117299505     2.76900117299505
O     4.15350175949257     4.15350175949257     1.38450058649752
O     4.15350175949257     1.38450058649752     4.15350175949257
O     1.38450058649752     4.15350175949257     4.15350175949257
O     4.15350175949257     1.38450058649752     1.38450058649752
O     1.38450058649752     4.15350175949257     1.38450058649752
O     1.38450058649752     1.38450058649752     4.15350175949257