CRYSTAL
# Primitive lattice vectors in Angstrom
PRIMVEC
 4.12871385984070 0.00000000000000 0.00000000000000
 -0.00000000000000 4.12871385984070 0.00000000000000
 0.00000000000000 0.00000000000000 4.12871385984070
# Cartesian coordinates in Angstrom.
PRIMCOORD
 4 1
Np     0.00000000000000     0.00000000000000     0.00000000000000
O     2.06435692992034     0.00000000000000     0.00000000000000
O     0.00000000000000     2.06435692992034     0.00000000000000
O     0.00000000000000     0.00000000000000     2.06435692992034