CRYSTAL
# Primitive lattice vectors in Angstrom
PRIMVEC
 5.32160731790098 0.00000000000000 0.00000000000000
 -0.00000000000000 5.32160731790098 0.00000000000000
 0.00000000000000 0.00000000000000 5.32160731790098
# Cartesian coordinates in Angstrom.
PRIMCOORD
 14 1
Np     0.00000000000000     0.00000000000000     0.00000000000000
Np     2.66080365895049     2.66080365895049     0.00000000000000
Np     2.66080365895049     0.00000000000000     2.66080365895049
Np     0.00000000000000     2.66080365895049     2.66080365895049
O     2.66080365895049     0.00000000000000     0.00000000000000
O     0.00000000000000     2.66080365895049     0.00000000000000
O     0.00000000000000     0.00000000000000     2.66080365895049
O     2.66080365895049     2.66080365895049     2.66080365895049
O     3.99120548842573     3.99120548842573     1.33040182947524
O     3.99120548842573     1.33040182947524     3.99120548842573
O     1.33040182947524     3.99120548842573     3.99120548842573
O     3.99120548842573     1.33040182947524     1.33040182947524
O     1.33040182947524     3.99120548842573     1.33040182947524
O     1.33040182947524     1.33040182947524     3.99120548842573