CRYSTAL
# Primitive lattice vectors in Angstrom
PRIMVEC
 5.30067770511653 0.00000000000000 0.00000000000000
 -0.00000000000000 5.30067770511653 0.00000000000000
 0.00000000000000 0.00000000000000 5.30067770511653
# Cartesian coordinates in Angstrom.
PRIMCOORD
 10 1
Np     1.32516942627913     1.32516942627913     1.32516942627913
Np     3.97550827883740     3.97550827883740     1.32516942627913
Np     3.97550827883740     1.32516942627913     3.97550827883740
Np     1.32516942627913     3.97550827883740     3.97550827883740
O     2.65033885255827     0.00000000000000     0.00000000000000
O     0.00000000000000     2.65033885255827     0.00000000000000
O     0.00000000000000     0.00000000000000     2.65033885255827
O     2.65033885255827     2.65033885255827     0.00000000000000
O     2.65033885255827     0.00000000000000     2.65033885255827
O     0.00000000000000     2.65033885255827     2.65033885255827