CRYSTAL
# Primitive lattice vectors in Angstrom
PRIMVEC
 4.57878053632582 0.00000000000000 0.00000000000000
 -0.00000000000000 4.57878053632582 0.00000000000000
 0.00000000000000 0.00000000000000 4.57878053632582
# Cartesian coordinates in Angstrom.
PRIMCOORD
 10 1
O     1.14469513408145     1.14469513408145     1.14469513408145
O     3.43408540224437     3.43408540224437     1.14469513408145
O     3.43408540224437     1.14469513408145     3.43408540224437
O     1.14469513408145     3.43408540224437     3.43408540224437
O     2.28939026816291     0.00000000000000     0.00000000000000
O     0.00000000000000     2.28939026816291     0.00000000000000
O     0.00000000000000     0.00000000000000     2.28939026816291
O     2.28939026816291     2.28939026816291     0.00000000000000
O     2.28939026816291     0.00000000000000     2.28939026816291
O     0.00000000000000     2.28939026816291     2.28939026816291