CRYSTAL
# Primitive lattice vectors in Angstrom
PRIMVEC
 4.88014886818566 0.00000000000000 0.00000000000000
 -0.00000000000000 4.88014886818566 0.00000000000000
 0.00000000000000 0.00000000000000 4.88014886818566
# Cartesian coordinates in Angstrom.
PRIMCOORD
 14 1
O     0.00000000000000     0.00000000000000     0.00000000000000
O     2.44007443409283     2.44007443409283     0.00000000000000
O     2.44007443409283     0.00000000000000     2.44007443409283
O     0.00000000000000     2.44007443409283     2.44007443409283
O     2.44007443409283     0.00000000000000     0.00000000000000
O     0.00000000000000     2.44007443409283     0.00000000000000
O     0.00000000000000     0.00000000000000     2.44007443409283
O     2.44007443409283     2.44007443409283     2.44007443409283
O     3.66011165113925     3.66011165113925     1.22003721704642
O     3.66011165113925     1.22003721704642     3.66011165113925
O     1.22003721704642     3.66011165113925     3.66011165113925
O     3.66011165113925     1.22003721704642     1.22003721704642
O     1.22003721704642     3.66011165113925     1.22003721704642
O     1.22003721704642     1.22003721704642     3.66011165113925