CRYSTAL
# Primitive lattice vectors in Angstrom
PRIMVEC
 3.55554893991345 0.00000000000000 0.00000000000000
 -0.00000000000000 3.55554893991345 0.00000000000000
 0.00000000000000 0.00000000000000 3.55554893991345
# Cartesian coordinates in Angstrom.
PRIMCOORD
 4 1
O     0.00000000000000     0.00000000000000     0.00000000000000
O     1.77777446995672     0.00000000000000     0.00000000000000
O     0.00000000000000     1.77777446995672     0.00000000000000
O     0.00000000000000     0.00000000000000     1.77777446995672