CRYSTAL
# Primitive lattice vectors in Angstrom
PRIMVEC
 4.78580654005972 0.00000000000000 0.00000000000000
 -0.00000000000000 4.78580654005972 0.00000000000000
 0.00000000000000 0.00000000000000 4.78580654005972
# Cartesian coordinates in Angstrom.
PRIMCOORD
 10 1
Os     1.19645163501493     1.19645163501493     1.19645163501493
Os     3.58935490504479     3.58935490504479     1.19645163501493
Os     3.58935490504479     1.19645163501493     3.58935490504479
Os     1.19645163501493     3.58935490504479     3.58935490504479
O     2.39290327002986     0.00000000000000     0.00000000000000
O     0.00000000000000     2.39290327002986     0.00000000000000
O     0.00000000000000     0.00000000000000     2.39290327002986
O     2.39290327002986     2.39290327002986     0.00000000000000
O     2.39290327002986     0.00000000000000     2.39290327002986
O     0.00000000000000     2.39290327002986     2.39290327002986