CRYSTAL
# Primitive lattice vectors in Angstrom
PRIMVEC
 3.75908178708971 0.00000000000000 0.00000000000000
 -0.00000000000000 3.75908178708971 0.00000000000000
 0.00000000000000 0.00000000000000 3.75908178708971
# Cartesian coordinates in Angstrom.
PRIMCOORD
 4 1
Os     0.00000000000000     0.00000000000000     0.00000000000000
O     1.87954089354485     0.00000000000000     0.00000000000000
O     0.00000000000000     1.87954089354485     0.00000000000000
O     0.00000000000000     0.00000000000000     1.87954089354485