CRYSTAL
# Primitive lattice vectors in Angstrom
PRIMVEC
 5.02007525816169 0.00000000000000 0.00000000000000
 -0.00000000000000 5.02007525816169 0.00000000000000
 0.00000000000000 0.00000000000000 5.02007525816169
# Cartesian coordinates in Angstrom.
PRIMCOORD
 14 1
Os     0.00000000000000     0.00000000000000     0.00000000000000
Os     2.51003762908085     2.51003762908085     0.00000000000000
Os     2.51003762908085     0.00000000000000     2.51003762908085
Os     0.00000000000000     2.51003762908085     2.51003762908085
O     2.51003762908085     0.00000000000000     0.00000000000000
O     0.00000000000000     2.51003762908085     0.00000000000000
O     0.00000000000000     0.00000000000000     2.51003762908085
O     2.51003762908085     2.51003762908085     2.51003762908085
O     3.76505644362127     3.76505644362127     1.25501881454042
O     3.76505644362127     1.25501881454042     3.76505644362127
O     1.25501881454042     3.76505644362127     3.76505644362127
O     3.76505644362127     1.25501881454042     1.25501881454042
O     1.25501881454042     3.76505644362127     1.25501881454042
O     1.25501881454042     1.25501881454042     3.76505644362127