CRYSTAL
# Primitive lattice vectors in Angstrom
PRIMVEC
 5.07738192350784 0.00000000000000 0.00000000000000
 -0.00000000000000 5.07738192350784 0.00000000000000
 0.00000000000000 0.00000000000000 5.07738192350784
# Cartesian coordinates in Angstrom.
PRIMCOORD
 14 1
P     0.00000000000000     0.00000000000000     0.00000000000000
P     2.53869096175392     2.53869096175392     0.00000000000000
P     2.53869096175392     0.00000000000000     2.53869096175392
P     0.00000000000000     2.53869096175392     2.53869096175392
O     2.53869096175392     0.00000000000000     0.00000000000000
O     0.00000000000000     2.53869096175392     0.00000000000000
O     0.00000000000000     0.00000000000000     2.53869096175392
O     2.53869096175392     2.53869096175392     2.53869096175392
O     3.80803644263088     3.80803644263088     1.26934548087696
O     3.80803644263088     1.26934548087696     3.80803644263088
O     1.26934548087696     3.80803644263088     3.80803644263088
O     3.80803644263088     1.26934548087696     1.26934548087696
O     1.26934548087696     3.80803644263088     1.26934548087696
O     1.26934548087696     1.26934548087696     3.80803644263088