CRYSTAL
# Primitive lattice vectors in Angstrom
PRIMVEC
 4.83075314500533 0.00000000000000 0.00000000000000
 -0.00000000000000 4.83075314500533 0.00000000000000
 0.00000000000000 0.00000000000000 4.83075314500533
# Cartesian coordinates in Angstrom.
PRIMCOORD
 10 1
P     1.20768828625133     1.20768828625133     1.20768828625133
P     3.62306485875400     3.62306485875400     1.20768828625133
P     3.62306485875400     1.20768828625133     3.62306485875400
P     1.20768828625133     3.62306485875400     3.62306485875400
O     2.41537657250267     0.00000000000000     0.00000000000000
O     0.00000000000000     2.41537657250267     0.00000000000000
O     0.00000000000000     0.00000000000000     2.41537657250267
O     2.41537657250267     2.41537657250267     0.00000000000000
O     2.41537657250267     0.00000000000000     2.41537657250267
O     0.00000000000000     2.41537657250267     2.41537657250267