CRYSTAL
# Primitive lattice vectors in Angstrom
PRIMVEC
 3.33371295314146 0.00000000000000 0.00000000000000
 -0.00000000000000 3.33371295314146 0.00000000000000
 0.00000000000000 0.00000000000000 3.33371295314146
# Cartesian coordinates in Angstrom.
PRIMCOORD
 4 1
P     0.00000000000000     0.00000000000000     0.00000000000000
O     1.66685647657073     0.00000000000000     0.00000000000000
O     0.00000000000000     1.66685647657073     0.00000000000000
O     0.00000000000000     0.00000000000000     1.66685647657073