CRYSTAL
# Primitive lattice vectors in Angstrom
PRIMVEC
 5.42503052592293 0.00000000000000 0.00000000000000
 -0.00000000000000 5.42503052592293 0.00000000000000
 0.00000000000000 0.00000000000000 5.42503052592293
# Cartesian coordinates in Angstrom.
PRIMCOORD
 14 1
Pa     0.00000000000000     0.00000000000000     0.00000000000000
Pa     2.71251526296146     2.71251526296146     0.00000000000000
Pa     2.71251526296146     0.00000000000000     2.71251526296146
Pa     0.00000000000000     2.71251526296146     2.71251526296146
O     2.71251526296146     0.00000000000000     0.00000000000000
O     0.00000000000000     2.71251526296146     0.00000000000000
O     0.00000000000000     0.00000000000000     2.71251526296146
O     2.71251526296146     2.71251526296146     2.71251526296146
O     4.06877289444220     4.06877289444220     1.35625763148073
O     4.06877289444220     1.35625763148073     4.06877289444220
O     1.35625763148073     4.06877289444220     4.06877289444220
O     4.06877289444220     1.35625763148073     1.35625763148073
O     1.35625763148073     4.06877289444220     1.35625763148073
O     1.35625763148073     1.35625763148073     4.06877289444220