CRYSTAL
# Primitive lattice vectors in Angstrom
PRIMVEC
 5.40961094890987 0.00000000000000 0.00000000000000
 -0.00000000000000 5.40961094890987 0.00000000000000
 0.00000000000000 0.00000000000000 5.40961094890987
# Cartesian coordinates in Angstrom.
PRIMCOORD
 10 1
Pa     1.35240273722747     1.35240273722747     1.35240273722747
Pa     4.05720821168241     4.05720821168241     1.35240273722747
Pa     4.05720821168241     1.35240273722747     4.05720821168241
Pa     1.35240273722747     4.05720821168241     4.05720821168241
O     2.70480547445494     0.00000000000000     0.00000000000000
O     0.00000000000000     2.70480547445494     0.00000000000000
O     0.00000000000000     0.00000000000000     2.70480547445494
O     2.70480547445494     2.70480547445494     0.00000000000000
O     2.70480547445494     0.00000000000000     2.70480547445494
O     0.00000000000000     2.70480547445494     2.70480547445494