CRYSTAL
# Primitive lattice vectors in Angstrom
PRIMVEC
 5.57708201151648 0.00000000000000 0.00000000000000
 -0.00000000000000 5.57708201151648 0.00000000000000
 0.00000000000000 0.00000000000000 5.57708201151648
# Cartesian coordinates in Angstrom.
PRIMCOORD
 10 1
Pb     1.39427050287912     1.39427050287912     1.39427050287912
Pb     4.18281150863736     4.18281150863736     1.39427050287912
Pb     4.18281150863736     1.39427050287912     4.18281150863736
Pb     1.39427050287912     4.18281150863736     4.18281150863736
O     2.78854100575825     0.00000000000000     0.00000000000000
O     0.00000000000000     2.78854100575825     0.00000000000000
O     0.00000000000000     0.00000000000000     2.78854100575825
O     2.78854100575825     2.78854100575825     0.00000000000000
O     2.78854100575825     0.00000000000000     2.78854100575825
O     0.00000000000000     2.78854100575825     2.78854100575825