CRYSTAL
# Primitive lattice vectors in Angstrom
PRIMVEC
 4.30734448036895 0.00000000000000 0.00000000000000
 -0.00000000000000 4.30734448036895 0.00000000000000
 0.00000000000000 0.00000000000000 4.30734448036895
# Cartesian coordinates in Angstrom.
PRIMCOORD
 4 1
Pb     0.00000000000000     0.00000000000000     0.00000000000000
O     2.15367224018447     0.00000000000000     0.00000000000000
O     0.00000000000000     2.15367224018447     0.00000000000000
O     0.00000000000000     0.00000000000000     2.15367224018447