CRYSTAL
# Primitive lattice vectors in Angstrom
PRIMVEC
 5.61607996956253 0.00000000000000 0.00000000000000
 -0.00000000000000 5.61607996956253 0.00000000000000
 0.00000000000000 0.00000000000000 5.61607996956253
# Cartesian coordinates in Angstrom.
PRIMCOORD
 14 1
Pb     0.00000000000000     0.00000000000000     0.00000000000000
Pb     2.80803998478127     2.80803998478127     0.00000000000000
Pb     2.80803998478127     0.00000000000000     2.80803998478127
Pb     0.00000000000000     2.80803998478127     2.80803998478127
O     2.80803998478127     0.00000000000000     0.00000000000000
O     0.00000000000000     2.80803998478127     0.00000000000000
O     0.00000000000000     0.00000000000000     2.80803998478127
O     2.80803998478127     2.80803998478127     2.80803998478127
O     4.21205997717190     4.21205997717190     1.40401999239063
O     4.21205997717190     1.40401999239063     4.21205997717190
O     1.40401999239063     4.21205997717190     4.21205997717190
O     4.21205997717190     1.40401999239063     1.40401999239063
O     1.40401999239063     4.21205997717190     1.40401999239063
O     1.40401999239063     1.40401999239063     4.21205997717190