CRYSTAL
# Primitive lattice vectors in Angstrom
PRIMVEC
 5.17203505030602 0.00000000000000 0.00000000000000
 -0.00000000000000 5.17203505030602 0.00000000000000
 0.00000000000000 0.00000000000000 5.17203505030602
# Cartesian coordinates in Angstrom.
PRIMCOORD
 14 1
Pd     0.00000000000000     0.00000000000000     0.00000000000000
Pd     2.58601752515301     2.58601752515301     0.00000000000000
Pd     2.58601752515301     0.00000000000000     2.58601752515301
Pd     0.00000000000000     2.58601752515301     2.58601752515301
O     2.58601752515301     0.00000000000000     0.00000000000000
O     0.00000000000000     2.58601752515301     0.00000000000000
O     0.00000000000000     0.00000000000000     2.58601752515301
O     2.58601752515301     2.58601752515301     2.58601752515301
O     3.87902628772952     3.87902628772952     1.29300876257651
O     3.87902628772952     1.29300876257651     3.87902628772952
O     1.29300876257651     3.87902628772952     3.87902628772952
O     3.87902628772952     1.29300876257651     1.29300876257651
O     1.29300876257651     3.87902628772952     1.29300876257651
O     1.29300876257651     1.29300876257651     3.87902628772952