CRYSTAL
# Primitive lattice vectors in Angstrom
PRIMVEC
 4.90616617816566 0.00000000000000 0.00000000000000
 -0.00000000000000 4.90616617816566 0.00000000000000
 0.00000000000000 0.00000000000000 4.90616617816566
# Cartesian coordinates in Angstrom.
PRIMCOORD
 10 1
Pd     1.22654154454141     1.22654154454141     1.22654154454141
Pd     3.67962463362425     3.67962463362425     1.22654154454141
Pd     3.67962463362425     1.22654154454141     3.67962463362425
Pd     1.22654154454141     3.67962463362425     3.67962463362425
O     2.45308308908283     0.00000000000000     0.00000000000000
O     0.00000000000000     2.45308308908283     0.00000000000000
O     0.00000000000000     0.00000000000000     2.45308308908283
O     2.45308308908283     2.45308308908283     0.00000000000000
O     2.45308308908283     0.00000000000000     2.45308308908283
O     0.00000000000000     2.45308308908283     2.45308308908283