CRYSTAL
# Primitive lattice vectors in Angstrom
PRIMVEC
 3.89788049102370 0.00000000000000 0.00000000000000
 -0.00000000000000 3.89788049102370 0.00000000000000
 0.00000000000000 0.00000000000000 3.89788049102370
# Cartesian coordinates in Angstrom.
PRIMCOORD
 4 1
Pd     0.00000000000000     0.00000000000000     0.00000000000000
O     1.94894024551185     0.00000000000000     0.00000000000000
O     0.00000000000000     1.94894024551185     0.00000000000000
O     0.00000000000000     0.00000000000000     1.94894024551185