CRYSTAL
# Primitive lattice vectors in Angstrom
PRIMVEC
 5.42433912930574 0.00000000000000 0.00000000000000
 -0.00000000000000 5.42433912930574 0.00000000000000
 0.00000000000000 0.00000000000000 5.42433912930574
# Cartesian coordinates in Angstrom.
PRIMCOORD
 14 1
Pm     0.00000000000000     0.00000000000000     0.00000000000000
Pm     2.71216956465287     2.71216956465287     0.00000000000000
Pm     2.71216956465287     0.00000000000000     2.71216956465287
Pm     0.00000000000000     2.71216956465287     2.71216956465287
O     2.71216956465287     0.00000000000000     0.00000000000000
O     0.00000000000000     2.71216956465287     0.00000000000000
O     0.00000000000000     0.00000000000000     2.71216956465287
O     2.71216956465287     2.71216956465287     2.71216956465287
O     4.06825434697931     4.06825434697931     1.35608478232644
O     4.06825434697931     1.35608478232644     4.06825434697931
O     1.35608478232644     4.06825434697931     4.06825434697931
O     4.06825434697931     1.35608478232644     1.35608478232644
O     1.35608478232644     4.06825434697931     1.35608478232644
O     1.35608478232644     1.35608478232644     4.06825434697931