CRYSTAL
# Primitive lattice vectors in Angstrom
PRIMVEC
 5.39574371944779 0.00000000000000 0.00000000000000
 -0.00000000000000 5.39574371944779 0.00000000000000
 0.00000000000000 0.00000000000000 5.39574371944779
# Cartesian coordinates in Angstrom.
PRIMCOORD
 10 1
Pm     1.34893592986195     1.34893592986195     1.34893592986195
Pm     4.04680778958585     4.04680778958585     1.34893592986195
Pm     4.04680778958585     1.34893592986195     4.04680778958585
Pm     1.34893592986195     4.04680778958585     4.04680778958585
O     2.69787185972390     0.00000000000000     0.00000000000000
O     0.00000000000000     2.69787185972390     0.00000000000000
O     0.00000000000000     0.00000000000000     2.69787185972390
O     2.69787185972390     2.69787185972390     0.00000000000000
O     2.69787185972390     0.00000000000000     2.69787185972390
O     0.00000000000000     2.69787185972390     2.69787185972390