CRYSTAL
# Primitive lattice vectors in Angstrom
PRIMVEC
 5.55144686414914 0.00000000000000 0.00000000000000
 -0.00000000000000 5.55144686414914 0.00000000000000
 0.00000000000000 0.00000000000000 5.55144686414914
# Cartesian coordinates in Angstrom.
PRIMCOORD
 14 1
Po     0.00000000000000     0.00000000000000     0.00000000000000
Po     2.77572343207457     2.77572343207457     0.00000000000000
Po     2.77572343207457     0.00000000000000     2.77572343207457
Po     0.00000000000000     2.77572343207457     2.77572343207457
O     2.77572343207457     0.00000000000000     0.00000000000000
O     0.00000000000000     2.77572343207457     0.00000000000000
O     0.00000000000000     0.00000000000000     2.77572343207457
O     2.77572343207457     2.77572343207457     2.77572343207457
O     4.16358514811185     4.16358514811185     1.38786171603728
O     4.16358514811185     1.38786171603728     4.16358514811185
O     1.38786171603728     4.16358514811185     4.16358514811185
O     4.16358514811185     1.38786171603728     1.38786171603728
O     1.38786171603728     4.16358514811185     1.38786171603728
O     1.38786171603728     1.38786171603728     4.16358514811185