CRYSTAL
# Primitive lattice vectors in Angstrom
PRIMVEC
 4.15245752619402 0.00000000000000 0.00000000000000
 -0.00000000000000 4.15245752619402 0.00000000000000
 0.00000000000000 0.00000000000000 4.15245752619402
# Cartesian coordinates in Angstrom.
PRIMCOORD
 4 1
Po     0.00000000000000     0.00000000000000     0.00000000000000
O     2.07622876309701     0.00000000000000     0.00000000000000
O     0.00000000000000     2.07622876309701     0.00000000000000
O     0.00000000000000     0.00000000000000     2.07622876309701