CRYSTAL
# Primitive lattice vectors in Angstrom
PRIMVEC
 5.53101281987716 0.00000000000000 0.00000000000000
 -0.00000000000000 5.53101281987716 0.00000000000000
 0.00000000000000 0.00000000000000 5.53101281987716
# Cartesian coordinates in Angstrom.
PRIMCOORD
 10 1
Po     1.38275320496929     1.38275320496929     1.38275320496929
Po     4.14825961490787     4.14825961490787     1.38275320496929
Po     4.14825961490787     1.38275320496929     4.14825961490787
Po     1.38275320496929     4.14825961490787     4.14825961490787
O     2.76550640993858     0.00000000000000     0.00000000000000
O     0.00000000000000     2.76550640993858     0.00000000000000
O     0.00000000000000     0.00000000000000     2.76550640993858
O     2.76550640993858     2.76550640993858     0.00000000000000
O     2.76550640993858     0.00000000000000     2.76550640993858
O     0.00000000000000     2.76550640993858     2.76550640993858