CRYSTAL
# Primitive lattice vectors in Angstrom
PRIMVEC
 4.25081253924189 0.00000000000000 0.00000000000000
 -0.00000000000000 4.25081253924189 0.00000000000000
 0.00000000000000 0.00000000000000 4.25081253924189
# Cartesian coordinates in Angstrom.
PRIMCOORD
 4 1
Pr     0.00000000000000     0.00000000000000     0.00000000000000
O     2.12540626962094     0.00000000000000     0.00000000000000
O     0.00000000000000     2.12540626962094     0.00000000000000
O     0.00000000000000     0.00000000000000     2.12540626962094