CRYSTAL
# Primitive lattice vectors in Angstrom
PRIMVEC
 5.44643389720243 0.00000000000000 0.00000000000000
 -0.00000000000000 5.44643389720243 0.00000000000000
 0.00000000000000 0.00000000000000 5.44643389720243
# Cartesian coordinates in Angstrom.
PRIMCOORD
 10 1
Pr     1.36160847430061     1.36160847430061     1.36160847430061
Pr     4.08482542290183     4.08482542290183     1.36160847430061
Pr     4.08482542290183     1.36160847430061     4.08482542290183
Pr     1.36160847430061     4.08482542290183     4.08482542290183
O     2.72321694860122     0.00000000000000     0.00000000000000
O     0.00000000000000     2.72321694860122     0.00000000000000
O     0.00000000000000     0.00000000000000     2.72321694860122
O     2.72321694860122     2.72321694860122     0.00000000000000
O     2.72321694860122     0.00000000000000     2.72321694860122
O     0.00000000000000     2.72321694860122     2.72321694860122