CRYSTAL
# Primitive lattice vectors in Angstrom
PRIMVEC
 5.45510932441886 0.00000000000000 0.00000000000000
 -0.00000000000000 5.45510932441886 0.00000000000000
 0.00000000000000 0.00000000000000 5.45510932441886
# Cartesian coordinates in Angstrom.
PRIMCOORD
 14 1
Pr     0.00000000000000     0.00000000000000     0.00000000000000
Pr     2.72755466220943     2.72755466220943     0.00000000000000
Pr     2.72755466220943     0.00000000000000     2.72755466220943
Pr     0.00000000000000     2.72755466220943     2.72755466220943
O     2.72755466220943     0.00000000000000     0.00000000000000
O     0.00000000000000     2.72755466220943     0.00000000000000
O     0.00000000000000     0.00000000000000     2.72755466220943
O     2.72755466220943     2.72755466220943     2.72755466220943
O     4.09133199331414     4.09133199331414     1.36377733110471
O     4.09133199331414     1.36377733110471     4.09133199331414
O     1.36377733110471     4.09133199331414     4.09133199331414
O     4.09133199331414     1.36377733110471     1.36377733110471
O     1.36377733110471     4.09133199331414     1.36377733110471
O     1.36377733110471     1.36377733110471     4.09133199331414