CRYSTAL
# Primitive lattice vectors in Angstrom
PRIMVEC
 3.86913896563321 0.00000000000000 0.00000000000000
 -0.00000000000000 3.86913896563321 0.00000000000000
 0.00000000000000 0.00000000000000 3.86913896563321
# Cartesian coordinates in Angstrom.
PRIMCOORD
 4 1
Pt     0.00000000000000     0.00000000000000     0.00000000000000
O     1.93456948281660     0.00000000000000     0.00000000000000
O     0.00000000000000     1.93456948281660     0.00000000000000
O     0.00000000000000     0.00000000000000     1.93456948281660