CRYSTAL
# Primitive lattice vectors in Angstrom
PRIMVEC
 4.95111272867103 0.00000000000000 0.00000000000000
 -0.00000000000000 4.95111272867103 0.00000000000000
 0.00000000000000 0.00000000000000 4.95111272867103
# Cartesian coordinates in Angstrom.
PRIMCOORD
 10 1
Pt     1.23777818216775     1.23777818216775     1.23777818216775
Pt     3.71333454650327     3.71333454650327     1.23777818216775
Pt     3.71333454650327     1.23777818216775     3.71333454650327
Pt     1.23777818216775     3.71333454650327     3.71333454650327
O     2.47555636433552     0.00000000000000     0.00000000000000
O     0.00000000000000     2.47555636433552     0.00000000000000
O     0.00000000000000     0.00000000000000     2.47555636433552
O     2.47555636433552     2.47555636433552     0.00000000000000
O     2.47555636433552     0.00000000000000     2.47555636433552
O     0.00000000000000     2.47555636433552     2.47555636433552