CRYSTAL
# Primitive lattice vectors in Angstrom
PRIMVEC
 5.17850260505295 0.00000000000000 0.00000000000000
 -0.00000000000000 5.17850260505295 0.00000000000000
 0.00000000000000 0.00000000000000 5.17850260505295
# Cartesian coordinates in Angstrom.
PRIMCOORD
 14 1
Pt     0.00000000000000     0.00000000000000     0.00000000000000
Pt     2.58925130252647     2.58925130252647     0.00000000000000
Pt     2.58925130252647     0.00000000000000     2.58925130252647
Pt     0.00000000000000     2.58925130252647     2.58925130252647
O     2.58925130252647     0.00000000000000     0.00000000000000
O     0.00000000000000     2.58925130252647     0.00000000000000
O     0.00000000000000     0.00000000000000     2.58925130252647
O     2.58925130252647     2.58925130252647     2.58925130252647
O     3.88387695378971     3.88387695378971     1.29462565126324
O     3.88387695378971     1.29462565126324     3.88387695378971
O     1.29462565126324     3.88387695378971     3.88387695378971
O     3.88387695378971     1.29462565126324     1.29462565126324
O     1.29462565126324     3.88387695378971     1.29462565126324
O     1.29462565126324     1.29462565126324     3.88387695378971