CRYSTAL
# Primitive lattice vectors in Angstrom
PRIMVEC
 5.28121307667647 0.00000000000000 0.00000000000000
 -0.00000000000000 5.28121307667647 0.00000000000000
 0.00000000000000 0.00000000000000 5.28121307667647
# Cartesian coordinates in Angstrom.
PRIMCOORD
 10 1
Pu     1.32030326916911     1.32030326916911     1.32030326916911
Pu     3.96090980750735     3.96090980750735     1.32030326916911
Pu     3.96090980750735     1.32030326916911     3.96090980750735
Pu     1.32030326916911     3.96090980750735     3.96090980750735
O     2.64060653833824     0.00000000000000     0.00000000000000
O     0.00000000000000     2.64060653833824     0.00000000000000
O     0.00000000000000     0.00000000000000     2.64060653833824
O     2.64060653833824     2.64060653833824     0.00000000000000
O     2.64060653833824     0.00000000000000     2.64060653833824
O     0.00000000000000     2.64060653833824     2.64060653833824