CRYSTAL
# Primitive lattice vectors in Angstrom
PRIMVEC
 4.10097104448076 0.00000000000000 0.00000000000000
 -0.00000000000000 4.10097104448076 0.00000000000000
 0.00000000000000 0.00000000000000 4.10097104448076
# Cartesian coordinates in Angstrom.
PRIMCOORD
 4 1
Pu     0.00000000000000     0.00000000000000     0.00000000000000
O     2.05048552224038     0.00000000000000     0.00000000000000
O     0.00000000000000     2.05048552224038     0.00000000000000
O     0.00000000000000     0.00000000000000     2.05048552224038