CRYSTAL
# Primitive lattice vectors in Angstrom
PRIMVEC
 5.31188057046777 0.00000000000000 0.00000000000000
 -0.00000000000000 5.31188057046777 0.00000000000000
 0.00000000000000 0.00000000000000 5.31188057046777
# Cartesian coordinates in Angstrom.
PRIMCOORD
 14 1
Pu     0.00000000000000     0.00000000000000     0.00000000000000
Pu     2.65594028523388     2.65594028523388     0.00000000000000
Pu     2.65594028523388     0.00000000000000     2.65594028523388
Pu     0.00000000000000     2.65594028523388     2.65594028523388
O     2.65594028523388     0.00000000000000     0.00000000000000
O     0.00000000000000     2.65594028523388     0.00000000000000
O     0.00000000000000     0.00000000000000     2.65594028523388
O     2.65594028523388     2.65594028523388     2.65594028523388
O     3.98391042785083     3.98391042785083     1.32797014261694
O     3.98391042785083     1.32797014261694     3.98391042785083
O     1.32797014261694     3.98391042785083     3.98391042785083
O     3.98391042785083     1.32797014261694     1.32797014261694
O     1.32797014261694     3.98391042785083     1.32797014261694
O     1.32797014261694     1.32797014261694     3.98391042785083