CRYSTAL
# Primitive lattice vectors in Angstrom
PRIMVEC
 4.45121630193700 0.00000000000000 0.00000000000000
 -0.00000000000000 4.45121630193700 0.00000000000000
 0.00000000000000 0.00000000000000 4.45121630193700
# Cartesian coordinates in Angstrom.
PRIMCOORD
 4 1
Ra     0.00000000000000     0.00000000000000     0.00000000000000
O     2.22560815096850     0.00000000000000     0.00000000000000
O     0.00000000000000     2.22560815096850     0.00000000000000
O     0.00000000000000     0.00000000000000     2.22560815096850