CRYSTAL
# Primitive lattice vectors in Angstrom
PRIMVEC
 6.25872060607563 0.00000000000000 0.00000000000000
 -0.00000000000000 6.25872060607563 0.00000000000000
 0.00000000000000 0.00000000000000 6.25872060607563
# Cartesian coordinates in Angstrom.
PRIMCOORD
 14 1
Ra     0.00000000000000     0.00000000000000     0.00000000000000
Ra     3.12936030303781     3.12936030303781     0.00000000000000
Ra     3.12936030303781     0.00000000000000     3.12936030303781
Ra     0.00000000000000     3.12936030303781     3.12936030303781
O     3.12936030303781     0.00000000000000     0.00000000000000
O     0.00000000000000     3.12936030303781     0.00000000000000
O     0.00000000000000     0.00000000000000     3.12936030303781
O     3.12936030303781     3.12936030303781     3.12936030303781
O     4.69404045455672     4.69404045455672     1.56468015151891
O     4.69404045455672     1.56468015151891     4.69404045455672
O     1.56468015151891     4.69404045455672     4.69404045455672
O     4.69404045455672     1.56468015151891     1.56468015151891
O     1.56468015151891     4.69404045455672     1.56468015151891
O     1.56468015151891     1.56468015151891     4.69404045455672