CRYSTAL
# Primitive lattice vectors in Angstrom
PRIMVEC
 6.32918717708554 0.00000000000000 0.00000000000000
 -0.00000000000000 6.32918717708554 0.00000000000000
 0.00000000000000 0.00000000000000 6.32918717708554
# Cartesian coordinates in Angstrom.
PRIMCOORD
 10 1
Ra     1.58229679427138     1.58229679427138     1.58229679427138
Ra     4.74689038281415     4.74689038281415     1.58229679427138
Ra     4.74689038281415     1.58229679427138     4.74689038281415
Ra     1.58229679427138     4.74689038281415     4.74689038281415
O     3.16459358854277     0.00000000000000     0.00000000000000
O     0.00000000000000     3.16459358854277     0.00000000000000
O     0.00000000000000     0.00000000000000     3.16459358854277
O     3.16459358854277     3.16459358854277     0.00000000000000
O     3.16459358854277     0.00000000000000     3.16459358854277
O     0.00000000000000     3.16459358854277     3.16459358854277