CRYSTAL
# Primitive lattice vectors in Angstrom
PRIMVEC
 5.51410296179819 0.00000000000000 0.00000000000000
 -0.00000000000000 5.51410296179819 0.00000000000000
 0.00000000000000 0.00000000000000 5.51410296179819
# Cartesian coordinates in Angstrom.
PRIMCOORD
 4 1
Rb     0.00000000000000     0.00000000000000     0.00000000000000
O     2.75705148089909     0.00000000000000     0.00000000000000
O     0.00000000000000     2.75705148089909     0.00000000000000
O     0.00000000000000     0.00000000000000     2.75705148089909