CRYSTAL
# Primitive lattice vectors in Angstrom
PRIMVEC
 6.14770097880567 0.00000000000000 0.00000000000000
 -0.00000000000000 6.14770097880567 0.00000000000000
 0.00000000000000 0.00000000000000 6.14770097880567
# Cartesian coordinates in Angstrom.
PRIMCOORD
 14 1
Rb     0.00000000000000     0.00000000000000     0.00000000000000
Rb     3.07385048940284     3.07385048940284     0.00000000000000
Rb     3.07385048940284     0.00000000000000     3.07385048940284
Rb     0.00000000000000     3.07385048940284     3.07385048940284
O     3.07385048940284     0.00000000000000     0.00000000000000
O     0.00000000000000     3.07385048940284     0.00000000000000
O     0.00000000000000     0.00000000000000     3.07385048940284
O     3.07385048940284     3.07385048940284     3.07385048940284
O     4.61077573410425     4.61077573410425     1.53692524470142
O     4.61077573410425     1.53692524470142     4.61077573410425
O     1.53692524470142     4.61077573410425     4.61077573410425
O     4.61077573410425     1.53692524470142     1.53692524470142
O     1.53692524470142     4.61077573410425     1.53692524470142
O     1.53692524470142     1.53692524470142     4.61077573410425