CRYSTAL
# Primitive lattice vectors in Angstrom
PRIMVEC
 6.50577145052767 0.00000000000000 0.00000000000000
 -0.00000000000000 6.50577145052767 0.00000000000000
 0.00000000000000 0.00000000000000 6.50577145052767
# Cartesian coordinates in Angstrom.
PRIMCOORD
 10 1
Rb     1.62644286263192     1.62644286263192     1.62644286263192
Rb     4.87932858789576     4.87932858789576     1.62644286263192
Rb     4.87932858789576     1.62644286263192     4.87932858789576
Rb     1.62644286263192     4.87932858789576     4.87932858789576
O     3.25288572526384     0.00000000000000     0.00000000000000
O     0.00000000000000     3.25288572526384     0.00000000000000
O     0.00000000000000     0.00000000000000     3.25288572526384
O     3.25288572526384     3.25288572526384     0.00000000000000
O     3.25288572526384     0.00000000000000     3.25288572526384
O     0.00000000000000     3.25288572526384     3.25288572526384