CRYSTAL
# Primitive lattice vectors in Angstrom
PRIMVEC
 4.80517771863374 0.00000000000000 0.00000000000000
 -0.00000000000000 4.80517771863374 0.00000000000000
 0.00000000000000 0.00000000000000 4.80517771863374
# Cartesian coordinates in Angstrom.
PRIMCOORD
 10 1
Re     1.20129442965843     1.20129442965843     1.20129442965843
Re     3.60388328897530     3.60388328897530     1.20129442965843
Re     3.60388328897530     1.20129442965843     3.60388328897530
Re     1.20129442965843     3.60388328897530     3.60388328897530
O     2.40258885931687     0.00000000000000     0.00000000000000
O     0.00000000000000     2.40258885931687     0.00000000000000
O     0.00000000000000     0.00000000000000     2.40258885931687
O     2.40258885931687     2.40258885931687     0.00000000000000
O     2.40258885931687     0.00000000000000     2.40258885931687
O     0.00000000000000     2.40258885931687     2.40258885931687