CRYSTAL
# Primitive lattice vectors in Angstrom
PRIMVEC
 4.99537883504916 0.00000000000000 0.00000000000000
 -0.00000000000000 4.99537883504916 0.00000000000000
 0.00000000000000 0.00000000000000 4.99537883504916
# Cartesian coordinates in Angstrom.
PRIMCOORD
 14 1
Re     0.00000000000000     0.00000000000000     0.00000000000000
Re     2.49768941752458     2.49768941752458     0.00000000000000
Re     2.49768941752458     0.00000000000000     2.49768941752458
Re     0.00000000000000     2.49768941752458     2.49768941752458
O     2.49768941752458     0.00000000000000     0.00000000000000
O     0.00000000000000     2.49768941752458     0.00000000000000
O     0.00000000000000     0.00000000000000     2.49768941752458
O     2.49768941752458     2.49768941752458     2.49768941752458
O     3.74653412628687     3.74653412628687     1.24884470876229
O     3.74653412628687     1.24884470876229     3.74653412628687
O     1.24884470876229     3.74653412628687     3.74653412628687
O     3.74653412628687     1.24884470876229     1.24884470876229
O     1.24884470876229     3.74653412628687     1.24884470876229
O     1.24884470876229     1.24884470876229     3.74653412628687