CRYSTAL
# Primitive lattice vectors in Angstrom
PRIMVEC
 3.77540668996464 0.00000000000000 0.00000000000000
 -0.00000000000000 3.77540668996464 0.00000000000000
 0.00000000000000 0.00000000000000 3.77540668996464
# Cartesian coordinates in Angstrom.
PRIMCOORD
 4 1
Re     0.00000000000000     0.00000000000000     0.00000000000000
O     1.88770334498232     0.00000000000000     0.00000000000000
O     0.00000000000000     1.88770334498232     0.00000000000000
O     0.00000000000000     0.00000000000000     1.88770334498232