CRYSTAL
# Primitive lattice vectors in Angstrom
PRIMVEC
 4.77952966804563 0.00000000000000 0.00000000000000
 -0.00000000000000 4.77952966804563 0.00000000000000
 0.00000000000000 0.00000000000000 4.77952966804563
# Cartesian coordinates in Angstrom.
PRIMCOORD
 10 1
Rh     1.19488241701141     1.19488241701141     1.19488241701141
Rh     3.58464725103422     3.58464725103422     1.19488241701141
Rh     3.58464725103422     1.19488241701141     3.58464725103422
Rh     1.19488241701141     3.58464725103422     3.58464725103422
O     2.38976483402282     0.00000000000000     0.00000000000000
O     0.00000000000000     2.38976483402282     0.00000000000000
O     0.00000000000000     0.00000000000000     2.38976483402282
O     2.38976483402282     2.38976483402282     0.00000000000000
O     2.38976483402282     0.00000000000000     2.38976483402282
O     0.00000000000000     2.38976483402282     2.38976483402282