CRYSTAL
# Primitive lattice vectors in Angstrom
PRIMVEC
 5.08149366706929 0.00000000000000 0.00000000000000
 -0.00000000000000 5.08149366706929 0.00000000000000
 0.00000000000000 0.00000000000000 5.08149366706929
# Cartesian coordinates in Angstrom.
PRIMCOORD
 14 1
Rh     0.00000000000000     0.00000000000000     0.00000000000000
Rh     2.54074683353464     2.54074683353464     0.00000000000000
Rh     2.54074683353464     0.00000000000000     2.54074683353464
Rh     0.00000000000000     2.54074683353464     2.54074683353464
O     2.54074683353464     0.00000000000000     0.00000000000000
O     0.00000000000000     2.54074683353464     0.00000000000000
O     0.00000000000000     0.00000000000000     2.54074683353464
O     2.54074683353464     2.54074683353464     2.54074683353464
O     3.81112025030197     3.81112025030197     1.27037341676732
O     3.81112025030197     1.27037341676732     3.81112025030197
O     1.27037341676732     3.81112025030197     3.81112025030197
O     3.81112025030197     1.27037341676732     1.27037341676732
O     1.27037341676732     3.81112025030197     1.27037341676732
O     1.27037341676732     1.27037341676732     3.81112025030197