CRYSTAL
# Primitive lattice vectors in Angstrom
PRIMVEC
 4.17025327990481 0.00000000000000 0.00000000000000
 -0.00000000000000 4.17025327990481 0.00000000000000
 0.00000000000000 0.00000000000000 4.17025327990481
# Cartesian coordinates in Angstrom.
PRIMCOORD
 4 1
Rn     0.00000000000000     0.00000000000000     0.00000000000000
O     2.08512663995240     0.00000000000000     0.00000000000000
O     0.00000000000000     2.08512663995240     0.00000000000000
O     0.00000000000000     0.00000000000000     2.08512663995240