CRYSTAL
# Primitive lattice vectors in Angstrom
PRIMVEC
 5.88326727447133 0.00000000000000 0.00000000000000
 -0.00000000000000 5.88326727447133 0.00000000000000
 0.00000000000000 0.00000000000000 5.88326727447133
# Cartesian coordinates in Angstrom.
PRIMCOORD
 10 1
Rn     1.47081681861783     1.47081681861783     1.47081681861783
Rn     4.41245045585350     4.41245045585350     1.47081681861783
Rn     4.41245045585350     1.47081681861783     4.41245045585350
Rn     1.47081681861783     4.41245045585350     4.41245045585350
O     2.94163363723567     0.00000000000000     0.00000000000000
O     0.00000000000000     2.94163363723567     0.00000000000000
O     0.00000000000000     0.00000000000000     2.94163363723567
O     2.94163363723567     2.94163363723567     0.00000000000000
O     2.94163363723567     0.00000000000000     2.94163363723567
O     0.00000000000000     2.94163363723567     2.94163363723567