CRYSTAL
# Primitive lattice vectors in Angstrom
PRIMVEC
 5.68203373336647 0.00000000000000 0.00000000000000
 -0.00000000000000 5.68203373336647 0.00000000000000
 0.00000000000000 0.00000000000000 5.68203373336647
# Cartesian coordinates in Angstrom.
PRIMCOORD
 14 1
Rn     0.00000000000000     0.00000000000000     0.00000000000000
Rn     2.84101686668323     2.84101686668323     0.00000000000000
Rn     2.84101686668323     0.00000000000000     2.84101686668323
Rn     0.00000000000000     2.84101686668323     2.84101686668323
O     2.84101686668323     0.00000000000000     0.00000000000000
O     0.00000000000000     2.84101686668323     0.00000000000000
O     0.00000000000000     0.00000000000000     2.84101686668323
O     2.84101686668323     2.84101686668323     2.84101686668323
O     4.26152530002485     4.26152530002485     1.42050843334162
O     4.26152530002485     1.42050843334162     4.26152530002485
O     1.42050843334162     4.26152530002485     4.26152530002485
O     4.26152530002485     1.42050843334162     1.42050843334162
O     1.42050843334162     4.26152530002485     1.42050843334162
O     1.42050843334162     1.42050843334162     4.26152530002485