CRYSTAL
# Primitive lattice vectors in Angstrom
PRIMVEC
 3.74731261081982 0.00000000000000 0.00000000000000
 -0.00000000000000 3.74731261081982 0.00000000000000
 0.00000000000000 0.00000000000000 3.74731261081982
# Cartesian coordinates in Angstrom.
PRIMCOORD
 4 1
Ru     0.00000000000000     0.00000000000000     0.00000000000000
O     1.87365630540990     0.00000000000000     0.00000000000000
O     0.00000000000000     1.87365630540990     0.00000000000000
O     0.00000000000000     0.00000000000000     1.87365630540990