CRYSTAL
# Primitive lattice vectors in Angstrom
PRIMVEC
 4.75488276357147 0.00000000000000 0.00000000000000
 -0.00000000000000 4.75488276357147 0.00000000000000
 0.00000000000000 0.00000000000000 4.75488276357147
# Cartesian coordinates in Angstrom.
PRIMCOORD
 10 1
Ru     1.18872069089286     1.18872069089286     1.18872069089286
Ru     3.56616207267860     3.56616207267860     1.18872069089286
Ru     3.56616207267860     1.18872069089286     3.56616207267860
Ru     1.18872069089286     3.56616207267860     3.56616207267860
O     2.37744138178574     0.00000000000000     0.00000000000000
O     0.00000000000000     2.37744138178574     0.00000000000000
O     0.00000000000000     0.00000000000000     2.37744138178574
O     2.37744138178574     2.37744138178574     0.00000000000000
O     2.37744138178574     0.00000000000000     2.37744138178574
O     0.00000000000000     2.37744138178574     2.37744138178574