CRYSTAL
# Primitive lattice vectors in Angstrom
PRIMVEC
 5.02440236650543 0.00000000000000 0.00000000000000
 -0.00000000000000 5.02440236650543 0.00000000000000
 0.00000000000000 0.00000000000000 5.02440236650543
# Cartesian coordinates in Angstrom.
PRIMCOORD
 14 1
Ru     0.00000000000000     0.00000000000000     0.00000000000000
Ru     2.51220118325271     2.51220118325271     0.00000000000000
Ru     2.51220118325271     0.00000000000000     2.51220118325271
Ru     0.00000000000000     2.51220118325271     2.51220118325271
O     2.51220118325271     0.00000000000000     0.00000000000000
O     0.00000000000000     2.51220118325271     0.00000000000000
O     0.00000000000000     0.00000000000000     2.51220118325271
O     2.51220118325271     2.51220118325271     2.51220118325271
O     3.76830177487907     3.76830177487907     1.25610059162636
O     3.76830177487907     1.25610059162636     3.76830177487907
O     1.25610059162636     3.76830177487907     3.76830177487907
O     3.76830177487907     1.25610059162636     1.25610059162636
O     1.25610059162636     3.76830177487907     1.25610059162636
O     1.25610059162636     1.25610059162636     3.76830177487907