CRYSTAL
# Primitive lattice vectors in Angstrom
PRIMVEC
 4.89533939875624 0.00000000000000 0.00000000000000
 -0.00000000000000 4.89533939875624 0.00000000000000
 0.00000000000000 0.00000000000000 4.89533939875624
# Cartesian coordinates in Angstrom.
PRIMCOORD
 10 1
S     1.22383484968906     1.22383484968906     1.22383484968906
S     3.67150454906718     3.67150454906718     1.22383484968906
S     3.67150454906718     1.22383484968906     3.67150454906718
S     1.22383484968906     3.67150454906718     3.67150454906718
O     2.44766969937812     0.00000000000000     0.00000000000000
O     0.00000000000000     2.44766969937812     0.00000000000000
O     0.00000000000000     0.00000000000000     2.44766969937812
O     2.44766969937812     2.44766969937812     0.00000000000000
O     2.44766969937812     0.00000000000000     2.44766969937812
O     0.00000000000000     2.44766969937812     2.44766969937812