CRYSTAL
# Primitive lattice vectors in Angstrom
PRIMVEC
 5.12438286307800 0.00000000000000 0.00000000000000
 -0.00000000000000 5.12438286307800 0.00000000000000
 0.00000000000000 0.00000000000000 5.12438286307800
# Cartesian coordinates in Angstrom.
PRIMCOORD
 14 1
S     0.00000000000000     0.00000000000000     0.00000000000000
S     2.56219143153900     2.56219143153900     0.00000000000000
S     2.56219143153900     0.00000000000000     2.56219143153900
S     0.00000000000000     2.56219143153900     2.56219143153900
O     2.56219143153900     0.00000000000000     0.00000000000000
O     0.00000000000000     2.56219143153900     0.00000000000000
O     0.00000000000000     0.00000000000000     2.56219143153900
O     2.56219143153900     2.56219143153900     2.56219143153900
O     3.84328714730850     3.84328714730850     1.28109571576950
O     3.84328714730850     1.28109571576950     3.84328714730850
O     1.28109571576950     3.84328714730850     3.84328714730850
O     3.84328714730850     1.28109571576950     1.28109571576950
O     1.28109571576950     3.84328714730850     1.28109571576950
O     1.28109571576950     1.28109571576950     3.84328714730850