CRYSTAL
# Primitive lattice vectors in Angstrom
PRIMVEC
 3.40176236855826 0.00000000000000 0.00000000000000
 -0.00000000000000 3.40176236855826 0.00000000000000
 0.00000000000000 0.00000000000000 3.40176236855826
# Cartesian coordinates in Angstrom.
PRIMCOORD
 4 1
S     0.00000000000000     0.00000000000000     0.00000000000000
O     1.70088118427913     0.00000000000000     0.00000000000000
O     0.00000000000000     1.70088118427913     0.00000000000000
O     0.00000000000000     0.00000000000000     1.70088118427913