CRYSTAL
# Primitive lattice vectors in Angstrom
PRIMVEC
 5.40343503649369 0.00000000000000 0.00000000000000
 -0.00000000000000 5.40343503649369 0.00000000000000
 0.00000000000000 0.00000000000000 5.40343503649369
# Cartesian coordinates in Angstrom.
PRIMCOORD
 10 1
Sb     1.35085875912342     1.35085875912342     1.35085875912342
Sb     4.05257627737027     4.05257627737027     1.35085875912342
Sb     4.05257627737027     1.35085875912342     4.05257627737027
Sb     1.35085875912342     4.05257627737027     4.05257627737027
O     2.70171751824685     0.00000000000000     0.00000000000000
O     0.00000000000000     2.70171751824685     0.00000000000000
O     0.00000000000000     0.00000000000000     2.70171751824685
O     2.70171751824685     2.70171751824685     0.00000000000000
O     2.70171751824685     0.00000000000000     2.70171751824685
O     0.00000000000000     2.70171751824685     2.70171751824685