CRYSTAL
# Primitive lattice vectors in Angstrom
PRIMVEC
 3.92214741749169 0.00000000000000 0.00000000000000
 -0.00000000000000 3.92214741749169 0.00000000000000
 0.00000000000000 0.00000000000000 3.92214741749169
# Cartesian coordinates in Angstrom.
PRIMCOORD
 4 1
Sb     0.00000000000000     0.00000000000000     0.00000000000000
O     1.96107370874584     0.00000000000000     0.00000000000000
O     0.00000000000000     1.96107370874584     0.00000000000000
O     0.00000000000000     0.00000000000000     1.96107370874584