CRYSTAL
# Primitive lattice vectors in Angstrom
PRIMVEC
 5.41356070736783 0.00000000000000 0.00000000000000
 -0.00000000000000 5.41356070736783 0.00000000000000
 0.00000000000000 0.00000000000000 5.41356070736783
# Cartesian coordinates in Angstrom.
PRIMCOORD
 14 1
Sb     0.00000000000000     0.00000000000000     0.00000000000000
Sb     2.70678035368392     2.70678035368392     0.00000000000000
Sb     2.70678035368392     0.00000000000000     2.70678035368392
Sb     0.00000000000000     2.70678035368392     2.70678035368392
O     2.70678035368392     0.00000000000000     0.00000000000000
O     0.00000000000000     2.70678035368392     0.00000000000000
O     0.00000000000000     0.00000000000000     2.70678035368392
O     2.70678035368392     2.70678035368392     2.70678035368392
O     4.06017053052587     4.06017053052587     1.35339017684196
O     4.06017053052587     1.35339017684196     4.06017053052587
O     1.35339017684196     4.06017053052587     4.06017053052587
O     4.06017053052587     1.35339017684196     1.35339017684196
O     1.35339017684196     4.06017053052587     1.35339017684196
O     1.35339017684196     1.35339017684196     4.06017053052587