CRYSTAL
# Primitive lattice vectors in Angstrom
PRIMVEC
 4.99224523472036 0.00000000000000 0.00000000000000
 -0.00000000000000 4.99224523472036 0.00000000000000
 0.00000000000000 0.00000000000000 4.99224523472036
# Cartesian coordinates in Angstrom.
PRIMCOORD
 10 1
Sc     1.24806130868009     1.24806130868009     1.24806130868009
Sc     3.74418392604027     3.74418392604027     1.24806130868009
Sc     3.74418392604027     1.24806130868009     3.74418392604027
Sc     1.24806130868009     3.74418392604027     3.74418392604027
O     2.49612261736018     0.00000000000000     0.00000000000000
O     0.00000000000000     2.49612261736018     0.00000000000000
O     0.00000000000000     0.00000000000000     2.49612261736018
O     2.49612261736018     2.49612261736018     0.00000000000000
O     2.49612261736018     0.00000000000000     2.49612261736018
O     0.00000000000000     2.49612261736018     2.49612261736018