CRYSTAL
# Primitive lattice vectors in Angstrom
PRIMVEC
 4.13707019066431 0.00000000000000 0.00000000000000
 -0.00000000000000 4.13707019066431 0.00000000000000
 0.00000000000000 0.00000000000000 4.13707019066431
# Cartesian coordinates in Angstrom.
PRIMCOORD
 4 1
Sc     0.00000000000000     0.00000000000000     0.00000000000000
O     2.06853509533215     0.00000000000000     0.00000000000000
O     0.00000000000000     2.06853509533215     0.00000000000000
O     0.00000000000000     0.00000000000000     2.06853509533215