CRYSTAL
# Primitive lattice vectors in Angstrom
PRIMVEC
 5.23108007091112 0.00000000000000 0.00000000000000
 -0.00000000000000 5.23108007091112 0.00000000000000
 0.00000000000000 0.00000000000000 5.23108007091112
# Cartesian coordinates in Angstrom.
PRIMCOORD
 14 1
Sc     0.00000000000000     0.00000000000000     0.00000000000000
Sc     2.61554003545556     2.61554003545556     0.00000000000000
Sc     2.61554003545556     0.00000000000000     2.61554003545556
Sc     0.00000000000000     2.61554003545556     2.61554003545556
O     2.61554003545556     0.00000000000000     0.00000000000000
O     0.00000000000000     2.61554003545556     0.00000000000000
O     0.00000000000000     0.00000000000000     2.61554003545556
O     2.61554003545556     2.61554003545556     2.61554003545556
O     3.92331005318334     3.92331005318334     1.30777001772778
O     3.92331005318334     1.30777001772778     3.92331005318334
O     1.30777001772778     3.92331005318334     3.92331005318334
O     3.92331005318334     1.30777001772778     1.30777001772778
O     1.30777001772778     3.92331005318334     1.30777001772778
O     1.30777001772778     1.30777001772778     3.92331005318334