CRYSTAL
# Primitive lattice vectors in Angstrom
PRIMVEC
 3.69699862970986 0.00000000000000 0.00000000000000
 -0.00000000000000 3.69699862970986 0.00000000000000
 0.00000000000000 0.00000000000000 3.69699862970986
# Cartesian coordinates in Angstrom.
PRIMCOORD
 4 1
Se     0.00000000000000     0.00000000000000     0.00000000000000
O     1.84849931485492     0.00000000000000     0.00000000000000
O     0.00000000000000     1.84849931485492     0.00000000000000
O     0.00000000000000     0.00000000000000     1.84849931485492