CRYSTAL
# Primitive lattice vectors in Angstrom
PRIMVEC
 5.09589966817688 0.00000000000000 0.00000000000000
 -0.00000000000000 5.09589966817688 0.00000000000000
 0.00000000000000 0.00000000000000 5.09589966817688
# Cartesian coordinates in Angstrom.
PRIMCOORD
 10 1
Se     1.27397491704422     1.27397491704422     1.27397491704422
Se     3.82192475113266     3.82192475113266     1.27397491704422
Se     3.82192475113266     1.27397491704422     3.82192475113266
Se     1.27397491704422     3.82192475113266     3.82192475113266
O     2.54794983408844     0.00000000000000     0.00000000000000
O     0.00000000000000     2.54794983408844     0.00000000000000
O     0.00000000000000     0.00000000000000     2.54794983408844
O     2.54794983408844     2.54794983408844     0.00000000000000
O     2.54794983408844     0.00000000000000     2.54794983408844
O     0.00000000000000     2.54794983408844     2.54794983408844