CRYSTAL
# Primitive lattice vectors in Angstrom
PRIMVEC
 5.24521647826377 0.00000000000000 0.00000000000000
 -0.00000000000000 5.24521647826377 0.00000000000000
 0.00000000000000 0.00000000000000 5.24521647826377
# Cartesian coordinates in Angstrom.
PRIMCOORD
 14 1
Se     0.00000000000000     0.00000000000000     0.00000000000000
Se     2.62260823913189     2.62260823913189     0.00000000000000
Se     2.62260823913189     0.00000000000000     2.62260823913189
Se     0.00000000000000     2.62260823913189     2.62260823913189
O     2.62260823913189     0.00000000000000     0.00000000000000
O     0.00000000000000     2.62260823913189     0.00000000000000
O     0.00000000000000     0.00000000000000     2.62260823913189
O     2.62260823913189     2.62260823913189     2.62260823913189
O     3.93391235869783     3.93391235869783     1.31130411956594
O     3.93391235869783     1.31130411956594     3.93391235869783
O     1.31130411956594     3.93391235869783     3.93391235869783
O     3.93391235869783     1.31130411956594     1.31130411956594
O     1.31130411956594     3.93391235869783     1.31130411956594
O     1.31130411956594     1.31130411956594     3.93391235869783