CRYSTAL
# Primitive lattice vectors in Angstrom
PRIMVEC
 3.47056051408192 0.00000000000000 0.00000000000000
 -0.00000000000000 3.47056051408192 0.00000000000000
 0.00000000000000 0.00000000000000 3.47056051408192
# Cartesian coordinates in Angstrom.
PRIMCOORD
 4 1
Si     0.00000000000000     0.00000000000000     0.00000000000000
O     1.73528025704096     0.00000000000000     0.00000000000000
O     0.00000000000000     1.73528025704096     0.00000000000000
O     0.00000000000000     0.00000000000000     1.73528025704096