CRYSTAL
# Primitive lattice vectors in Angstrom
PRIMVEC
 4.60628294511048 0.00000000000000 0.00000000000000
 -0.00000000000000 4.60628294511048 0.00000000000000
 0.00000000000000 0.00000000000000 4.60628294511048
# Cartesian coordinates in Angstrom.
PRIMCOORD
 10 1
Si     1.15157073627762     1.15157073627762     1.15157073627762
Si     3.45471220883286     3.45471220883286     1.15157073627762
Si     3.45471220883286     1.15157073627762     3.45471220883286
Si     1.15157073627762     3.45471220883286     3.45471220883286
O     2.30314147255524     0.00000000000000     0.00000000000000
O     0.00000000000000     2.30314147255524     0.00000000000000
O     0.00000000000000     0.00000000000000     2.30314147255524
O     2.30314147255524     2.30314147255524     0.00000000000000
O     2.30314147255524     0.00000000000000     2.30314147255524
O     0.00000000000000     2.30314147255524     2.30314147255524