CRYSTAL
# Primitive lattice vectors in Angstrom
PRIMVEC
 4.96314843054094 0.00000000000000 0.00000000000000
 -0.00000000000000 4.96314843054094 0.00000000000000
 0.00000000000000 0.00000000000000 4.96314843054094
# Cartesian coordinates in Angstrom.
PRIMCOORD
 14 1
Si     0.00000000000000     0.00000000000000     0.00000000000000
Si     2.48157421527047     2.48157421527047     0.00000000000000
Si     2.48157421527047     0.00000000000000     2.48157421527047
Si     0.00000000000000     2.48157421527047     2.48157421527047
O     2.48157421527047     0.00000000000000     0.00000000000000
O     0.00000000000000     2.48157421527047     0.00000000000000
O     0.00000000000000     0.00000000000000     2.48157421527047
O     2.48157421527047     2.48157421527047     2.48157421527047
O     3.72236132290571     3.72236132290571     1.24078710763524
O     3.72236132290571     1.24078710763524     3.72236132290571
O     1.24078710763524     3.72236132290571     3.72236132290571
O     3.72236132290571     1.24078710763524     1.24078710763524
O     1.24078710763524     3.72236132290571     1.24078710763524
O     1.24078710763524     1.24078710763524     3.72236132290571