CRYSTAL
# Primitive lattice vectors in Angstrom
PRIMVEC
 4.15333103504670 0.00000000000000 0.00000000000000
 -0.00000000000000 4.15333103504670 0.00000000000000
 0.00000000000000 0.00000000000000 4.15333103504670
# Cartesian coordinates in Angstrom.
PRIMCOORD
 4 1
Sm     0.00000000000000     0.00000000000000     0.00000000000000
O     2.07666551752335     0.00000000000000     0.00000000000000
O     0.00000000000000     2.07666551752335     0.00000000000000
O     0.00000000000000     0.00000000000000     2.07666551752335