CRYSTAL
# Primitive lattice vectors in Angstrom
PRIMVEC
 5.37666657110380 0.00000000000000 0.00000000000000
 -0.00000000000000 5.37666657110380 0.00000000000000
 0.00000000000000 0.00000000000000 5.37666657110380
# Cartesian coordinates in Angstrom.
PRIMCOORD
 10 1
Sm     1.34416664277595     1.34416664277595     1.34416664277595
Sm     4.03249992832786     4.03249992832786     1.34416664277595
Sm     4.03249992832786     1.34416664277595     4.03249992832786
Sm     1.34416664277595     4.03249992832786     4.03249992832786
O     2.68833328555191     0.00000000000000     0.00000000000000
O     0.00000000000000     2.68833328555191     0.00000000000000
O     0.00000000000000     0.00000000000000     2.68833328555191
O     2.68833328555191     2.68833328555191     0.00000000000000
O     2.68833328555191     0.00000000000000     2.68833328555191
O     0.00000000000000     2.68833328555191     2.68833328555191