CRYSTAL
# Primitive lattice vectors in Angstrom
PRIMVEC
 5.41614943330469 0.00000000000000 0.00000000000000
 -0.00000000000000 5.41614943330469 0.00000000000000
 0.00000000000000 0.00000000000000 5.41614943330469
# Cartesian coordinates in Angstrom.
PRIMCOORD
 14 1
Sm     0.00000000000000     0.00000000000000     0.00000000000000
Sm     2.70807471665234     2.70807471665234     0.00000000000000
Sm     2.70807471665234     0.00000000000000     2.70807471665234
Sm     0.00000000000000     2.70807471665234     2.70807471665234
O     2.70807471665234     0.00000000000000     0.00000000000000
O     0.00000000000000     2.70807471665234     0.00000000000000
O     0.00000000000000     0.00000000000000     2.70807471665234
O     2.70807471665234     2.70807471665234     2.70807471665234
O     4.06211207497852     4.06211207497852     1.35403735832617
O     4.06211207497852     1.35403735832617     4.06211207497852
O     1.35403735832617     4.06211207497852     4.06211207497852
O     4.06211207497852     1.35403735832617     1.35403735832617
O     1.35403735832617     4.06211207497852     1.35403735832617
O     1.35403735832617     1.35403735832617     4.06211207497852