CRYSTAL
# Primitive lattice vectors in Angstrom
PRIMVEC
 5.26025953949182 0.00000000000000 0.00000000000000
 -0.00000000000000 5.26025953949182 0.00000000000000
 0.00000000000000 0.00000000000000 5.26025953949182
# Cartesian coordinates in Angstrom.
PRIMCOORD
 10 1
Sn     1.31506488487295     1.31506488487295     1.31506488487295
Sn     3.94519465461887     3.94519465461887     1.31506488487295
Sn     3.94519465461887     1.31506488487295     3.94519465461887
Sn     1.31506488487295     3.94519465461887     3.94519465461887
O     2.63012976974592     0.00000000000000     0.00000000000000
O     0.00000000000000     2.63012976974592     0.00000000000000
O     0.00000000000000     0.00000000000000     2.63012976974592
O     2.63012976974592     2.63012976974592     0.00000000000000
O     2.63012976974592     0.00000000000000     2.63012976974592
O     0.00000000000000     2.63012976974592     2.63012976974592