CRYSTAL
# Primitive lattice vectors in Angstrom
PRIMVEC
 5.35869708207566 0.00000000000000 0.00000000000000
 -0.00000000000000 5.35869708207566 0.00000000000000
 0.00000000000000 0.00000000000000 5.35869708207566
# Cartesian coordinates in Angstrom.
PRIMCOORD
 14 1
Sn     0.00000000000000     0.00000000000000     0.00000000000000
Sn     2.67934854103783     2.67934854103783     0.00000000000000
Sn     2.67934854103783     0.00000000000000     2.67934854103783
Sn     0.00000000000000     2.67934854103783     2.67934854103783
O     2.67934854103783     0.00000000000000     0.00000000000000
O     0.00000000000000     2.67934854103783     0.00000000000000
O     0.00000000000000     0.00000000000000     2.67934854103783
O     2.67934854103783     2.67934854103783     2.67934854103783
O     4.01902281155675     4.01902281155675     1.33967427051892
O     4.01902281155675     1.33967427051892     4.01902281155675
O     1.33967427051892     4.01902281155675     4.01902281155675
O     4.01902281155675     1.33967427051892     1.33967427051892
O     1.33967427051892     4.01902281155675     1.33967427051892
O     1.33967427051892     1.33967427051892     4.01902281155675