CRYSTAL
# Primitive lattice vectors in Angstrom
PRIMVEC
 4.07941822080315 0.00000000000000 0.00000000000000
 -0.00000000000000 4.07941822080315 0.00000000000000
 0.00000000000000 0.00000000000000 4.07941822080315
# Cartesian coordinates in Angstrom.
PRIMCOORD
 4 1
Sn     0.00000000000000     0.00000000000000     0.00000000000000
O     2.03970911040157     0.00000000000000     0.00000000000000
O     0.00000000000000     2.03970911040157     0.00000000000000
O     0.00000000000000     0.00000000000000     2.03970911040157