CRYSTAL
# Primitive lattice vectors in Angstrom
PRIMVEC
 4.88696944230996 0.00000000000000 0.00000000000000
 -0.00000000000000 4.88696944230996 0.00000000000000
 0.00000000000000 0.00000000000000 4.88696944230996
# Cartesian coordinates in Angstrom.
PRIMCOORD
 4 1
Sr     0.00000000000000     0.00000000000000     0.00000000000000
O     2.44348472115497     0.00000000000000     0.00000000000000
O     0.00000000000000     2.44348472115497     0.00000000000000
O     0.00000000000000     0.00000000000000     2.44348472115497