CRYSTAL
# Primitive lattice vectors in Angstrom
PRIMVEC
 5.80665785421028 0.00000000000000 0.00000000000000
 -0.00000000000000 5.80665785421028 0.00000000000000
 0.00000000000000 0.00000000000000 5.80665785421028
# Cartesian coordinates in Angstrom.
PRIMCOORD
 10 1
Sr     1.45166446355257     1.45166446355257     1.45166446355257
Sr     4.35499339065771     4.35499339065771     1.45166446355257
Sr     4.35499339065771     1.45166446355257     4.35499339065771
Sr     1.45166446355257     4.35499339065771     4.35499339065771
O     2.90332892710515     0.00000000000000     0.00000000000000
O     0.00000000000000     2.90332892710515     0.00000000000000
O     0.00000000000000     0.00000000000000     2.90332892710515
O     2.90332892710515     2.90332892710515     0.00000000000000
O     2.90332892710515     0.00000000000000     2.90332892710515
O     0.00000000000000     2.90332892710515     2.90332892710515