CRYSTAL
# Primitive lattice vectors in Angstrom
PRIMVEC
 5.81612567076033 0.00000000000000 0.00000000000000
 -0.00000000000000 5.81612567076033 0.00000000000000
 0.00000000000000 0.00000000000000 5.81612567076033
# Cartesian coordinates in Angstrom.
PRIMCOORD
 14 1
Sr     0.00000000000000     0.00000000000000     0.00000000000000
Sr     2.90806283538017     2.90806283538017     0.00000000000000
Sr     2.90806283538017     0.00000000000000     2.90806283538017
Sr     0.00000000000000     2.90806283538017     2.90806283538017
O     2.90806283538017     0.00000000000000     0.00000000000000
O     0.00000000000000     2.90806283538017     0.00000000000000
O     0.00000000000000     0.00000000000000     2.90806283538017
O     2.90806283538017     2.90806283538017     2.90806283538017
O     4.36209425307025     4.36209425307025     1.45403141769008
O     4.36209425307025     1.45403141769008     4.36209425307025
O     1.45403141769008     4.36209425307025     4.36209425307025
O     4.36209425307025     1.45403141769008     1.45403141769008
O     1.45403141769008     4.36209425307025     1.45403141769008
O     1.45403141769008     1.45403141769008     4.36209425307025