CRYSTAL
# Primitive lattice vectors in Angstrom
PRIMVEC
 4.93257545962604 0.00000000000000 0.00000000000000
 -0.00000000000000 4.93257545962604 0.00000000000000
 0.00000000000000 0.00000000000000 4.93257545962604
# Cartesian coordinates in Angstrom.
PRIMCOORD
 10 1
Ta     1.23314386490651     1.23314386490651     1.23314386490651
Ta     3.69943159471953     3.69943159471953     1.23314386490651
Ta     3.69943159471953     1.23314386490651     3.69943159471953
Ta     1.23314386490651     3.69943159471953     3.69943159471953
O     2.46628772981303     0.00000000000000     0.00000000000000
O     0.00000000000000     2.46628772981303     0.00000000000000
O     0.00000000000000     0.00000000000000     2.46628772981303
O     2.46628772981303     2.46628772981303     0.00000000000000
O     2.46628772981303     0.00000000000000     2.46628772981303
O     0.00000000000000     2.46628772981303     2.46628772981303