CRYSTAL
# Primitive lattice vectors in Angstrom
PRIMVEC
 3.95391226933500 0.00000000000000 0.00000000000000
 -0.00000000000000 3.95391226933500 0.00000000000000
 0.00000000000000 0.00000000000000 3.95391226933500
# Cartesian coordinates in Angstrom.
PRIMCOORD
 4 1
Ta     0.00000000000000     0.00000000000000     0.00000000000000
O     1.97695613466750     0.00000000000000     0.00000000000000
O     0.00000000000000     1.97695613466750     0.00000000000000
O     0.00000000000000     0.00000000000000     1.97695613466750