CRYSTAL
# Primitive lattice vectors in Angstrom
PRIMVEC
 5.08264319630037 0.00000000000000 0.00000000000000
 -0.00000000000000 5.08264319630037 0.00000000000000
 0.00000000000000 0.00000000000000 5.08264319630037
# Cartesian coordinates in Angstrom.
PRIMCOORD
 14 1
Ta     0.00000000000000     0.00000000000000     0.00000000000000
Ta     2.54132159815018     2.54132159815018     0.00000000000000
Ta     2.54132159815018     0.00000000000000     2.54132159815018
Ta     0.00000000000000     2.54132159815018     2.54132159815018
O     2.54132159815018     0.00000000000000     0.00000000000000
O     0.00000000000000     2.54132159815018     0.00000000000000
O     0.00000000000000     0.00000000000000     2.54132159815018
O     2.54132159815018     2.54132159815018     2.54132159815018
O     3.81198239722527     3.81198239722527     1.27066079907509
O     3.81198239722527     1.27066079907509     3.81198239722527
O     1.27066079907509     3.81198239722527     3.81198239722527
O     3.81198239722527     1.27066079907509     1.27066079907509
O     1.27066079907509     3.81198239722527     1.27066079907509
O     1.27066079907509     1.27066079907509     3.81198239722527