CRYSTAL
# Primitive lattice vectors in Angstrom
PRIMVEC
 5.33201486582309 0.00000000000000 0.00000000000000
 -0.00000000000000 5.33201486582309 0.00000000000000
 0.00000000000000 0.00000000000000 5.33201486582309
# Cartesian coordinates in Angstrom.
PRIMCOORD
 10 1
Tb     1.33300371645577     1.33300371645577     1.33300371645577
Tb     3.99901114936732     3.99901114936732     1.33300371645577
Tb     3.99901114936732     1.33300371645577     3.99901114936732
Tb     1.33300371645577     3.99901114936732     3.99901114936732
O     2.66600743291155     0.00000000000000     0.00000000000000
O     0.00000000000000     2.66600743291155     0.00000000000000
O     0.00000000000000     0.00000000000000     2.66600743291155
O     2.66600743291155     2.66600743291155     0.00000000000000
O     2.66600743291155     0.00000000000000     2.66600743291155
O     0.00000000000000     2.66600743291155     2.66600743291155