CRYSTAL
# Primitive lattice vectors in Angstrom
PRIMVEC
 4.16108533506019 0.00000000000000 0.00000000000000
 -0.00000000000000 4.16108533506019 0.00000000000000
 0.00000000000000 0.00000000000000 4.16108533506019
# Cartesian coordinates in Angstrom.
PRIMCOORD
 4 1
Tb     0.00000000000000     0.00000000000000     0.00000000000000
O     2.08054266753009     0.00000000000000     0.00000000000000
O     0.00000000000000     2.08054266753009     0.00000000000000
O     0.00000000000000     0.00000000000000     2.08054266753009