CRYSTAL
# Primitive lattice vectors in Angstrom
PRIMVEC
 5.40075844087611 0.00000000000000 0.00000000000000
 -0.00000000000000 5.40075844087611 0.00000000000000
 0.00000000000000 0.00000000000000 5.40075844087611
# Cartesian coordinates in Angstrom.
PRIMCOORD
 14 1
Tb     0.00000000000000     0.00000000000000     0.00000000000000
Tb     2.70037922043806     2.70037922043806     0.00000000000000
Tb     2.70037922043806     0.00000000000000     2.70037922043806
Tb     0.00000000000000     2.70037922043806     2.70037922043806
O     2.70037922043806     0.00000000000000     0.00000000000000
O     0.00000000000000     2.70037922043806     0.00000000000000
O     0.00000000000000     0.00000000000000     2.70037922043806
O     2.70037922043806     2.70037922043806     2.70037922043806
O     4.05056883065709     4.05056883065709     1.35018961021903
O     4.05056883065709     1.35018961021903     4.05056883065709
O     1.35018961021903     4.05056883065709     4.05056883065709
O     4.05056883065709     1.35018961021903     1.35018961021903
O     1.35018961021903     4.05056883065709     1.35018961021903
O     1.35018961021903     1.35018961021903     4.05056883065709