CRYSTAL
# Primitive lattice vectors in Angstrom
PRIMVEC
 3.75838382335141 0.00000000000000 0.00000000000000
 -0.00000000000000 3.75838382335141 0.00000000000000
 0.00000000000000 0.00000000000000 3.75838382335141
# Cartesian coordinates in Angstrom.
PRIMCOORD
 4 1
Tc     0.00000000000000     0.00000000000000     0.00000000000000
O     1.87919191167570     0.00000000000000     0.00000000000000
O     0.00000000000000     1.87919191167570     0.00000000000000
O     0.00000000000000     0.00000000000000     1.87919191167570