CRYSTAL
# Primitive lattice vectors in Angstrom
PRIMVEC
 4.78466027668862 0.00000000000000 0.00000000000000
 -0.00000000000000 4.78466027668862 0.00000000000000
 0.00000000000000 0.00000000000000 4.78466027668862
# Cartesian coordinates in Angstrom.
PRIMCOORD
 10 1
Tc     1.19616506917215     1.19616506917215     1.19616506917215
Tc     3.58849520751646     3.58849520751646     1.19616506917215
Tc     3.58849520751646     1.19616506917215     3.58849520751646
Tc     1.19616506917215     3.58849520751646     3.58849520751646
O     2.39233013834431     0.00000000000000     0.00000000000000
O     0.00000000000000     2.39233013834431     0.00000000000000
O     0.00000000000000     0.00000000000000     2.39233013834431
O     2.39233013834431     2.39233013834431     0.00000000000000
O     2.39233013834431     0.00000000000000     2.39233013834431
O     0.00000000000000     2.39233013834431     2.39233013834431