CRYSTAL
# Primitive lattice vectors in Angstrom
PRIMVEC
 4.99787965726917 0.00000000000000 0.00000000000000
 -0.00000000000000 4.99787965726917 0.00000000000000
 0.00000000000000 0.00000000000000 4.99787965726917
# Cartesian coordinates in Angstrom.
PRIMCOORD
 14 1
Tc     0.00000000000000     0.00000000000000     0.00000000000000
Tc     2.49893982863458     2.49893982863458     0.00000000000000
Tc     2.49893982863458     0.00000000000000     2.49893982863458
Tc     0.00000000000000     2.49893982863458     2.49893982863458
O     2.49893982863458     0.00000000000000     0.00000000000000
O     0.00000000000000     2.49893982863458     0.00000000000000
O     0.00000000000000     0.00000000000000     2.49893982863458
O     2.49893982863458     2.49893982863458     2.49893982863458
O     3.74840974295187     3.74840974295187     1.24946991431729
O     3.74840974295187     1.24946991431729     3.74840974295187
O     1.24946991431729     3.74840974295187     3.74840974295187
O     3.74840974295187     1.24946991431729     1.24946991431729
O     1.24946991431729     3.74840974295187     1.24946991431729
O     1.24946991431729     1.24946991431729     3.74840974295187