CRYSTAL
# Primitive lattice vectors in Angstrom
PRIMVEC
 5.39918921114637 0.00000000000000 0.00000000000000
 -0.00000000000000 5.39918921114637 0.00000000000000
 0.00000000000000 0.00000000000000 5.39918921114637
# Cartesian coordinates in Angstrom.
PRIMCOORD
 10 1
Te     1.34979730278659     1.34979730278659     1.34979730278659
Te     4.04939190835978     4.04939190835978     1.34979730278659
Te     4.04939190835978     1.34979730278659     4.04939190835978
Te     1.34979730278659     4.04939190835978     4.04939190835978
O     2.69959460557319     0.00000000000000     0.00000000000000
O     0.00000000000000     2.69959460557319     0.00000000000000
O     0.00000000000000     0.00000000000000     2.69959460557319
O     2.69959460557319     2.69959460557319     0.00000000000000
O     2.69959460557319     0.00000000000000     2.69959460557319
O     0.00000000000000     2.69959460557319     2.69959460557319