CRYSTAL
# Primitive lattice vectors in Angstrom
PRIMVEC
 5.42965995493289 0.00000000000000 0.00000000000000
 -0.00000000000000 5.42965995493289 0.00000000000000
 0.00000000000000 0.00000000000000 5.42965995493289
# Cartesian coordinates in Angstrom.
PRIMCOORD
 14 1
Te     0.00000000000000     0.00000000000000     0.00000000000000
Te     2.71482997746644     2.71482997746644     0.00000000000000
Te     2.71482997746644     0.00000000000000     2.71482997746644
Te     0.00000000000000     2.71482997746644     2.71482997746644
O     2.71482997746644     0.00000000000000     0.00000000000000
O     0.00000000000000     2.71482997746644     0.00000000000000
O     0.00000000000000     0.00000000000000     2.71482997746644
O     2.71482997746644     2.71482997746644     2.71482997746644
O     4.07224496619967     4.07224496619967     1.35741498873322
O     4.07224496619967     1.35741498873322     4.07224496619967
O     1.35741498873322     4.07224496619967     4.07224496619967
O     4.07224496619967     1.35741498873322     1.35741498873322
O     1.35741498873322     4.07224496619967     1.35741498873322
O     1.35741498873322     1.35741498873322     4.07224496619967