CRYSTAL
# Primitive lattice vectors in Angstrom
PRIMVEC
 4.44832204632919 0.00000000000000 0.00000000000000
 -0.00000000000000 4.44832204632919 0.00000000000000
 0.00000000000000 0.00000000000000 4.44832204632919
# Cartesian coordinates in Angstrom.
PRIMCOORD
 4 1
Th     0.00000000000000     0.00000000000000     0.00000000000000
O     2.22416102316459     0.00000000000000     0.00000000000000
O     0.00000000000000     2.22416102316459     0.00000000000000
O     0.00000000000000     0.00000000000000     2.22416102316459