CRYSTAL
# Primitive lattice vectors in Angstrom
PRIMVEC
 5.59105557957821 0.00000000000000 0.00000000000000
 -0.00000000000000 5.59105557957821 0.00000000000000
 0.00000000000000 0.00000000000000 5.59105557957821
# Cartesian coordinates in Angstrom.
PRIMCOORD
 10 1
Th     1.39776389489455     1.39776389489455     1.39776389489455
Th     4.19329168468366     4.19329168468366     1.39776389489455
Th     4.19329168468366     1.39776389489455     4.19329168468366
Th     1.39776389489455     4.19329168468366     4.19329168468366
O     2.79552778978911     0.00000000000000     0.00000000000000
O     0.00000000000000     2.79552778978911     0.00000000000000
O     0.00000000000000     0.00000000000000     2.79552778978911
O     2.79552778978911     2.79552778978911     0.00000000000000
O     2.79552778978911     0.00000000000000     2.79552778978911
O     0.00000000000000     2.79552778978911     2.79552778978911