CRYSTAL
# Primitive lattice vectors in Angstrom
PRIMVEC
 5.63313112510871 0.00000000000000 0.00000000000000
 -0.00000000000000 5.63313112510871 0.00000000000000
 0.00000000000000 0.00000000000000 5.63313112510871
# Cartesian coordinates in Angstrom.
PRIMCOORD
 14 1
Th     0.00000000000000     0.00000000000000     0.00000000000000
Th     2.81656556255435     2.81656556255435     0.00000000000000
Th     2.81656556255435     0.00000000000000     2.81656556255435
Th     0.00000000000000     2.81656556255435     2.81656556255435
O     2.81656556255435     0.00000000000000     0.00000000000000
O     0.00000000000000     2.81656556255435     0.00000000000000
O     0.00000000000000     0.00000000000000     2.81656556255435
O     2.81656556255435     2.81656556255435     2.81656556255435
O     4.22484834383153     4.22484834383153     1.40828278127718
O     4.22484834383153     1.40828278127718     4.22484834383153
O     1.40828278127718     4.22484834383153     4.22484834383153
O     4.22484834383153     1.40828278127718     1.40828278127718
O     1.40828278127718     4.22484834383153     1.40828278127718
O     1.40828278127718     1.40828278127718     4.22484834383153