CRYSTAL
# Primitive lattice vectors in Angstrom
PRIMVEC
 5.03563257031420 0.00000000000000 0.00000000000000
 -0.00000000000000 5.03563257031420 0.00000000000000
 0.00000000000000 0.00000000000000 5.03563257031420
# Cartesian coordinates in Angstrom.
PRIMCOORD
 14 1
Ti     0.00000000000000     0.00000000000000     0.00000000000000
Ti     2.51781628515710     2.51781628515710     0.00000000000000
Ti     2.51781628515710     0.00000000000000     2.51781628515710
Ti     0.00000000000000     2.51781628515710     2.51781628515710
O     2.51781628515710     0.00000000000000     0.00000000000000
O     0.00000000000000     2.51781628515710     0.00000000000000
O     0.00000000000000     0.00000000000000     2.51781628515710
O     2.51781628515710     2.51781628515710     2.51781628515710
O     3.77672442773565     3.77672442773565     1.25890814257855
O     3.77672442773565     1.25890814257855     3.77672442773565
O     1.25890814257855     3.77672442773565     3.77672442773565
O     3.77672442773565     1.25890814257855     1.25890814257855
O     1.25890814257855     3.77672442773565     1.25890814257855
O     1.25890814257855     1.25890814257855     3.77672442773565