CRYSTAL
# Primitive lattice vectors in Angstrom
PRIMVEC
 4.77231999664165 0.00000000000000 0.00000000000000
 -0.00000000000000 4.77231999664165 0.00000000000000
 0.00000000000000 0.00000000000000 4.77231999664165
# Cartesian coordinates in Angstrom.
PRIMCOORD
 10 1
Ti     1.19307999916041     1.19307999916041     1.19307999916041
Ti     3.57923999748124     3.57923999748124     1.19307999916041
Ti     3.57923999748124     1.19307999916041     3.57923999748124
Ti     1.19307999916041     3.57923999748124     3.57923999748124
O     2.38615999832083     0.00000000000000     0.00000000000000
O     0.00000000000000     2.38615999832083     0.00000000000000
O     0.00000000000000     0.00000000000000     2.38615999832083
O     2.38615999832083     2.38615999832083     0.00000000000000
O     2.38615999832083     0.00000000000000     2.38615999832083
O     0.00000000000000     2.38615999832083     2.38615999832083