CRYSTAL
# Primitive lattice vectors in Angstrom
PRIMVEC
 5.56598085027282 0.00000000000000 0.00000000000000
 -0.00000000000000 5.56598085027282 0.00000000000000
 0.00000000000000 0.00000000000000 5.56598085027282
# Cartesian coordinates in Angstrom.
PRIMCOORD
 14 1
Tl     0.00000000000000     0.00000000000000     0.00000000000000
Tl     2.78299042513641     2.78299042513641     0.00000000000000
Tl     2.78299042513641     0.00000000000000     2.78299042513641
Tl     0.00000000000000     2.78299042513641     2.78299042513641
O     2.78299042513641     0.00000000000000     0.00000000000000
O     0.00000000000000     2.78299042513641     0.00000000000000
O     0.00000000000000     0.00000000000000     2.78299042513641
O     2.78299042513641     2.78299042513641     2.78299042513641
O     4.17448563770462     4.17448563770462     1.39149521256821
O     4.17448563770462     1.39149521256821     4.17448563770462
O     1.39149521256821     4.17448563770462     4.17448563770462
O     4.17448563770462     1.39149521256821     1.39149521256821
O     1.39149521256821     4.17448563770462     1.39149521256821
O     1.39149521256821     1.39149521256821     4.17448563770462