CRYSTAL
# Primitive lattice vectors in Angstrom
PRIMVEC
 5.42275828956586 0.00000000000000 0.00000000000000
 -0.00000000000000 5.42275828956586 0.00000000000000
 0.00000000000000 0.00000000000000 5.42275828956586
# Cartesian coordinates in Angstrom.
PRIMCOORD
 10 1
Tl     1.35568957239146     1.35568957239146     1.35568957239146
Tl     4.06706871717440     4.06706871717440     1.35568957239146
Tl     4.06706871717440     1.35568957239146     4.06706871717440
Tl     1.35568957239146     4.06706871717440     4.06706871717440
O     2.71137914478293     0.00000000000000     0.00000000000000
O     0.00000000000000     2.71137914478293     0.00000000000000
O     0.00000000000000     0.00000000000000     2.71137914478293
O     2.71137914478293     2.71137914478293     0.00000000000000
O     2.71137914478293     0.00000000000000     2.71137914478293
O     0.00000000000000     2.71137914478293     2.71137914478293