CRYSTAL
# Primitive lattice vectors in Angstrom
PRIMVEC
 4.31497346691492 0.00000000000000 0.00000000000000
 -0.00000000000000 4.31497346691492 0.00000000000000
 0.00000000000000 0.00000000000000 4.31497346691492
# Cartesian coordinates in Angstrom.
PRIMCOORD
 4 1
Tl     0.00000000000000     0.00000000000000     0.00000000000000
O     2.15748673345746     0.00000000000000     0.00000000000000
O     0.00000000000000     2.15748673345746     0.00000000000000
O     0.00000000000000     0.00000000000000     2.15748673345746