CRYSTAL
# Primitive lattice vectors in Angstrom
PRIMVEC
 5.41010529929205 0.00000000000000 0.00000000000000
 -0.00000000000000 5.41010529929205 0.00000000000000
 0.00000000000000 0.00000000000000 5.41010529929205
# Cartesian coordinates in Angstrom.
PRIMCOORD
 14 1
Tm     0.00000000000000     0.00000000000000     0.00000000000000
Tm     2.70505264964603     2.70505264964603     0.00000000000000
Tm     2.70505264964603     0.00000000000000     2.70505264964603
Tm     0.00000000000000     2.70505264964603     2.70505264964603
O     2.70505264964603     0.00000000000000     0.00000000000000
O     0.00000000000000     2.70505264964603     0.00000000000000
O     0.00000000000000     0.00000000000000     2.70505264964603
O     2.70505264964603     2.70505264964603     2.70505264964603
O     4.05757897446904     4.05757897446904     1.35252632482301
O     4.05757897446904     1.35252632482301     4.05757897446904
O     1.35252632482301     4.05757897446904     4.05757897446904
O     4.05757897446904     1.35252632482301     1.35252632482301
O     1.35252632482301     4.05757897446904     1.35252632482301
O     1.35252632482301     1.35252632482301     4.05757897446904