CRYSTAL
# Primitive lattice vectors in Angstrom
PRIMVEC
 4.21756506323740 0.00000000000000 0.00000000000000
 -0.00000000000000 4.21756506323740 0.00000000000000
 0.00000000000000 0.00000000000000 4.21756506323740
# Cartesian coordinates in Angstrom.
PRIMCOORD
 4 1
Tm     0.00000000000000     0.00000000000000     0.00000000000000
O     2.10878253161869     0.00000000000000     0.00000000000000
O     0.00000000000000     2.10878253161869     0.00000000000000
O     0.00000000000000     0.00000000000000     2.10878253161869