CRYSTAL
# Primitive lattice vectors in Angstrom
PRIMVEC
 5.29650974132429 0.00000000000000 0.00000000000000
 -0.00000000000000 5.29650974132429 0.00000000000000
 0.00000000000000 0.00000000000000 5.29650974132429
# Cartesian coordinates in Angstrom.
PRIMCOORD
 10 1
Tm     1.32412743533107     1.32412743533107     1.32412743533107
Tm     3.97238230599322     3.97238230599322     1.32412743533107
Tm     3.97238230599322     1.32412743533107     3.97238230599322
Tm     1.32412743533107     3.97238230599322     3.97238230599322
O     2.64825487066215     0.00000000000000     0.00000000000000
O     0.00000000000000     2.64825487066215     0.00000000000000
O     0.00000000000000     0.00000000000000     2.64825487066215
O     2.64825487066215     2.64825487066215     0.00000000000000
O     2.64825487066215     0.00000000000000     2.64825487066215
O     0.00000000000000     2.64825487066215     2.64825487066215