CRYSTAL
# Primitive lattice vectors in Angstrom
PRIMVEC
 5.34971534362804 0.00000000000000 0.00000000000000
 -0.00000000000000 5.34971534362804 0.00000000000000
 0.00000000000000 0.00000000000000 5.34971534362804
# Cartesian coordinates in Angstrom.
PRIMCOORD
 14 1
U     0.00000000000000     0.00000000000000     0.00000000000000
U     2.67485767181402     2.67485767181402     0.00000000000000
U     2.67485767181402     0.00000000000000     2.67485767181402
U     0.00000000000000     2.67485767181402     2.67485767181402
O     2.67485767181402     0.00000000000000     0.00000000000000
O     0.00000000000000     2.67485767181402     0.00000000000000
O     0.00000000000000     0.00000000000000     2.67485767181402
O     2.67485767181402     2.67485767181402     2.67485767181402
O     4.01228650772103     4.01228650772103     1.33742883590701
O     4.01228650772103     1.33742883590701     4.01228650772103
O     1.33742883590701     4.01228650772103     4.01228650772103
O     4.01228650772103     1.33742883590701     1.33742883590701
O     1.33742883590701     4.01228650772103     1.33742883590701
O     1.33742883590701     1.33742883590701     4.01228650772103