CRYSTAL
# Primitive lattice vectors in Angstrom
PRIMVEC
 5.33795807126801 0.00000000000000 0.00000000000000
 -0.00000000000000 5.33795807126801 0.00000000000000
 0.00000000000000 0.00000000000000 5.33795807126801
# Cartesian coordinates in Angstrom.
PRIMCOORD
 10 1
U     1.33448951781700     1.33448951781700     1.33448951781700
U     4.00346855345101     4.00346855345101     1.33448951781700
U     4.00346855345101     1.33448951781700     4.00346855345101
U     1.33448951781700     4.00346855345101     4.00346855345101
O     2.66897903563401     0.00000000000000     0.00000000000000
O     0.00000000000000     2.66897903563401     0.00000000000000
O     0.00000000000000     0.00000000000000     2.66897903563401
O     2.66897903563401     2.66897903563401     0.00000000000000
O     2.66897903563401     0.00000000000000     2.66897903563401
O     0.00000000000000     2.66897903563401     2.66897903563401