CRYSTAL
# Primitive lattice vectors in Angstrom
PRIMVEC
 4.16481176897850 0.00000000000000 0.00000000000000
 -0.00000000000000 4.16481176897850 0.00000000000000
 0.00000000000000 0.00000000000000 4.16481176897850
# Cartesian coordinates in Angstrom.
PRIMCOORD
 4 1
U     0.00000000000000     0.00000000000000     0.00000000000000
O     2.08240588448925     0.00000000000000     0.00000000000000
O     0.00000000000000     2.08240588448925     0.00000000000000
O     0.00000000000000     0.00000000000000     2.08240588448925