CRYSTAL
# Primitive lattice vectors in Angstrom
PRIMVEC
 4.93381720485284 0.00000000000000 0.00000000000000
 -0.00000000000000 4.93381720485284 0.00000000000000
 0.00000000000000 0.00000000000000 4.93381720485284
# Cartesian coordinates in Angstrom.
PRIMCOORD
 14 1
V     0.00000000000000     0.00000000000000     0.00000000000000
V     2.46690860242642     2.46690860242642     0.00000000000000
V     2.46690860242642     0.00000000000000     2.46690860242642
V     0.00000000000000     2.46690860242642     2.46690860242642
O     2.46690860242642     0.00000000000000     0.00000000000000
O     0.00000000000000     2.46690860242642     0.00000000000000
O     0.00000000000000     0.00000000000000     2.46690860242642
O     2.46690860242642     2.46690860242642     2.46690860242642
O     3.70036290363963     3.70036290363963     1.23345430121321
O     3.70036290363963     1.23345430121321     3.70036290363963
O     1.23345430121321     3.70036290363963     3.70036290363963
O     3.70036290363963     1.23345430121321     1.23345430121321
O     1.23345430121321     3.70036290363963     1.23345430121321
O     1.23345430121321     1.23345430121321     3.70036290363963