CRYSTAL
# Primitive lattice vectors in Angstrom
PRIMVEC
 4.67157528044149 0.00000000000000 0.00000000000000
 -0.00000000000000 4.67157528044149 0.00000000000000
 0.00000000000000 0.00000000000000 4.67157528044149
# Cartesian coordinates in Angstrom.
PRIMCOORD
 10 1
V     1.16789382011037     1.16789382011037     1.16789382011037
V     3.50368146033112     3.50368146033112     1.16789382011037
V     3.50368146033112     1.16789382011037     3.50368146033112
V     1.16789382011037     3.50368146033112     3.50368146033112
O     2.33578764022075     0.00000000000000     0.00000000000000
O     0.00000000000000     2.33578764022075     0.00000000000000
O     0.00000000000000     0.00000000000000     2.33578764022075
O     2.33578764022075     2.33578764022075     0.00000000000000
O     2.33578764022075     0.00000000000000     2.33578764022075
O     0.00000000000000     2.33578764022075     2.33578764022075