CRYSTAL
# Primitive lattice vectors in Angstrom
PRIMVEC
 4.85584133566033 0.00000000000000 0.00000000000000
 -0.00000000000000 4.85584133566033 0.00000000000000
 0.00000000000000 0.00000000000000 4.85584133566033
# Cartesian coordinates in Angstrom.
PRIMCOORD
 10 1
W     1.21396033391508     1.21396033391508     1.21396033391508
W     3.64188100174525     3.64188100174525     1.21396033391508
W     3.64188100174525     1.21396033391508     3.64188100174525
W     1.21396033391508     3.64188100174525     3.64188100174525
O     2.42792066783017     0.00000000000000     0.00000000000000
O     0.00000000000000     2.42792066783017     0.00000000000000
O     0.00000000000000     0.00000000000000     2.42792066783017
O     2.42792066783017     2.42792066783017     0.00000000000000
O     2.42792066783017     0.00000000000000     2.42792066783017
O     0.00000000000000     2.42792066783017     2.42792066783017