CRYSTAL
# Primitive lattice vectors in Angstrom
PRIMVEC
 5.00962232652340 0.00000000000000 0.00000000000000
 -0.00000000000000 5.00962232652340 0.00000000000000
 0.00000000000000 0.00000000000000 5.00962232652340
# Cartesian coordinates in Angstrom.
PRIMCOORD
 14 1
W     0.00000000000000     0.00000000000000     0.00000000000000
W     2.50481116326170     2.50481116326170     0.00000000000000
W     2.50481116326170     0.00000000000000     2.50481116326170
W     0.00000000000000     2.50481116326170     2.50481116326170
O     2.50481116326170     0.00000000000000     0.00000000000000
O     0.00000000000000     2.50481116326170     0.00000000000000
O     0.00000000000000     0.00000000000000     2.50481116326170
O     2.50481116326170     2.50481116326170     2.50481116326170
O     3.75721674489255     3.75721674489255     1.25240558163085
O     3.75721674489255     1.25240558163085     3.75721674489255
O     1.25240558163085     3.75721674489255     3.75721674489255
O     3.75721674489255     1.25240558163085     1.25240558163085
O     1.25240558163085     3.75721674489255     1.25240558163085
O     1.25240558163085     1.25240558163085     3.75721674489255