CRYSTAL
# Primitive lattice vectors in Angstrom
PRIMVEC
 3.82691159707433 0.00000000000000 0.00000000000000
 -0.00000000000000 3.82691159707433 0.00000000000000
 0.00000000000000 0.00000000000000 3.82691159707433
# Cartesian coordinates in Angstrom.
PRIMCOORD
 4 1
W     0.00000000000000     0.00000000000000     0.00000000000000
O     1.91345579853716     0.00000000000000     0.00000000000000
O     0.00000000000000     1.91345579853716     0.00000000000000
O     0.00000000000000     0.00000000000000     1.91345579853716