CRYSTAL
# Primitive lattice vectors in Angstrom
PRIMVEC
 5.70023651885238 0.00000000000000 0.00000000000000
 -0.00000000000000 5.70023651885238 0.00000000000000
 0.00000000000000 0.00000000000000 5.70023651885238
# Cartesian coordinates in Angstrom.
PRIMCOORD
 14 1
Xe     0.00000000000000     0.00000000000000     0.00000000000000
Xe     2.85011825942619     2.85011825942619     0.00000000000000
Xe     2.85011825942619     0.00000000000000     2.85011825942619
Xe     0.00000000000000     2.85011825942619     2.85011825942619
O     2.85011825942619     0.00000000000000     0.00000000000000
O     0.00000000000000     2.85011825942619     0.00000000000000
O     0.00000000000000     0.00000000000000     2.85011825942619
O     2.85011825942619     2.85011825942619     2.85011825942619
O     4.27517738913929     4.27517738913929     1.42505912971310
O     4.27517738913929     1.42505912971310     4.27517738913929
O     1.42505912971310     4.27517738913929     4.27517738913929
O     4.27517738913929     1.42505912971310     1.42505912971310
O     1.42505912971310     4.27517738913929     1.42505912971310
O     1.42505912971310     1.42505912971310     4.27517738913929