CRYSTAL
# Primitive lattice vectors in Angstrom
PRIMVEC
 4.06754488315600 0.00000000000000 0.00000000000000
 -0.00000000000000 4.06754488315600 0.00000000000000
 0.00000000000000 0.00000000000000 4.06754488315600
# Cartesian coordinates in Angstrom.
PRIMCOORD
 4 1
Xe     0.00000000000000     0.00000000000000     0.00000000000000
O     2.03377244157800     0.00000000000000     0.00000000000000
O     0.00000000000000     2.03377244157800     0.00000000000000
O     0.00000000000000     0.00000000000000     2.03377244157800