CRYSTAL
# Primitive lattice vectors in Angstrom
PRIMVEC
 5.83765026724681 0.00000000000000 0.00000000000000
 -0.00000000000000 5.83765026724681 0.00000000000000
 0.00000000000000 0.00000000000000 5.83765026724681
# Cartesian coordinates in Angstrom.
PRIMCOORD
 10 1
Xe     1.45941256681170     1.45941256681170     1.45941256681170
Xe     4.37823770043511     4.37823770043511     1.45941256681170
Xe     4.37823770043511     1.45941256681170     4.37823770043511
Xe     1.45941256681170     4.37823770043511     4.37823770043511
O     2.91882513362341     0.00000000000000     0.00000000000000
O     0.00000000000000     2.91882513362341     0.00000000000000
O     0.00000000000000     0.00000000000000     2.91882513362341
O     2.91882513362341     2.91882513362341     0.00000000000000
O     2.91882513362341     0.00000000000000     2.91882513362341
O     0.00000000000000     2.91882513362341     2.91882513362341