CRYSTAL
# Primitive lattice vectors in Angstrom
PRIMVEC
 5.34309661779969 0.00000000000000 0.00000000000000
 -0.00000000000000 5.34309661779969 0.00000000000000
 0.00000000000000 0.00000000000000 5.34309661779969
# Cartesian coordinates in Angstrom.
PRIMCOORD
 10 1
Y     1.33577415444992     1.33577415444992     1.33577415444992
Y     4.00732246334977     4.00732246334977     1.33577415444992
Y     4.00732246334977     1.33577415444992     4.00732246334977
Y     1.33577415444992     4.00732246334977     4.00732246334977
O     2.67154830889985     0.00000000000000     0.00000000000000
O     0.00000000000000     2.67154830889985     0.00000000000000
O     0.00000000000000     0.00000000000000     2.67154830889985
O     2.67154830889985     2.67154830889985     0.00000000000000
O     2.67154830889985     0.00000000000000     2.67154830889985
O     0.00000000000000     2.67154830889985     2.67154830889985