CRYSTAL
# Primitive lattice vectors in Angstrom
PRIMVEC
 5.49030860090105 0.00000000000000 0.00000000000000
 -0.00000000000000 5.49030860090105 0.00000000000000
 0.00000000000000 0.00000000000000 5.49030860090105
# Cartesian coordinates in Angstrom.
PRIMCOORD
 14 1
Y     0.00000000000000     0.00000000000000     0.00000000000000
Y     2.74515430045053     2.74515430045053     0.00000000000000
Y     2.74515430045053     0.00000000000000     2.74515430045053
Y     0.00000000000000     2.74515430045053     2.74515430045053
O     2.74515430045053     0.00000000000000     0.00000000000000
O     0.00000000000000     2.74515430045053     0.00000000000000
O     0.00000000000000     0.00000000000000     2.74515430045053
O     2.74515430045053     2.74515430045053     2.74515430045053
O     4.11773145067579     4.11773145067579     1.37257715022526
O     4.11773145067579     1.37257715022526     4.11773145067579
O     1.37257715022526     4.11773145067579     4.11773145067579
O     4.11773145067579     1.37257715022526     1.37257715022526
O     1.37257715022526     4.11773145067579     1.37257715022526
O     1.37257715022526     1.37257715022526     4.11773145067579