CRYSTAL
# Primitive lattice vectors in Angstrom
PRIMVEC
 4.46481543231783 0.00000000000000 0.00000000000000
 -0.00000000000000 4.46481543231783 0.00000000000000
 0.00000000000000 0.00000000000000 4.46481543231783
# Cartesian coordinates in Angstrom.
PRIMCOORD
 4 1
Y     0.00000000000000     0.00000000000000     0.00000000000000
O     2.23240771615891     0.00000000000000     0.00000000000000
O     0.00000000000000     2.23240771615891     0.00000000000000
O     0.00000000000000     0.00000000000000     2.23240771615891