CRYSTAL
# Primitive lattice vectors in Angstrom
PRIMVEC
 5.29335005532854 0.00000000000000 0.00000000000000
 -0.00000000000000 5.29335005532854 0.00000000000000
 0.00000000000000 0.00000000000000 5.29335005532854
# Cartesian coordinates in Angstrom.
PRIMCOORD
 10 1
Yb     1.32333751383213     1.32333751383213     1.32333751383213
Yb     3.97001254149641     3.97001254149641     1.32333751383213
Yb     3.97001254149641     1.32333751383213     3.97001254149641
Yb     1.32333751383213     3.97001254149641     3.97001254149641
O     2.64667502766428     0.00000000000000     0.00000000000000
O     0.00000000000000     2.64667502766428     0.00000000000000
O     0.00000000000000     0.00000000000000     2.64667502766428
O     2.64667502766428     2.64667502766428     0.00000000000000
O     2.64667502766428     0.00000000000000     2.64667502766428
O     0.00000000000000     2.64667502766428     2.64667502766428