CRYSTAL
# Primitive lattice vectors in Angstrom
PRIMVEC
 5.42173831783087 0.00000000000000 0.00000000000000
 -0.00000000000000 5.42173831783087 0.00000000000000
 0.00000000000000 0.00000000000000 5.42173831783087
# Cartesian coordinates in Angstrom.
PRIMCOORD
 14 1
Yb     0.00000000000000     0.00000000000000     0.00000000000000
Yb     2.71086915891543     2.71086915891543     0.00000000000000
Yb     2.71086915891543     0.00000000000000     2.71086915891543
Yb     0.00000000000000     2.71086915891543     2.71086915891543
O     2.71086915891543     0.00000000000000     0.00000000000000
O     0.00000000000000     2.71086915891543     0.00000000000000
O     0.00000000000000     0.00000000000000     2.71086915891543
O     2.71086915891543     2.71086915891543     2.71086915891543
O     4.06630373837315     4.06630373837315     1.35543457945772
O     4.06630373837315     1.35543457945772     4.06630373837315
O     1.35543457945772     4.06630373837315     4.06630373837315
O     4.06630373837315     1.35543457945772     1.35543457945772
O     1.35543457945772     4.06630373837315     1.35543457945772
O     1.35543457945772     1.35543457945772     4.06630373837315