CRYSTAL
# Primitive lattice vectors in Angstrom
PRIMVEC
 3.85046277292148 0.00000000000000 0.00000000000000
 -0.00000000000000 3.85046277292148 0.00000000000000
 0.00000000000000 0.00000000000000 3.85046277292148
# Cartesian coordinates in Angstrom.
PRIMCOORD
 4 1
Zn     0.00000000000000     0.00000000000000     0.00000000000000
O     1.92523138646074     0.00000000000000     0.00000000000000
O     0.00000000000000     1.92523138646074     0.00000000000000
O     0.00000000000000     0.00000000000000     1.92523138646074