CRYSTAL
# Primitive lattice vectors in Angstrom
PRIMVEC
 4.84118837290445 0.00000000000000 0.00000000000000
 -0.00000000000000 4.84118837290445 0.00000000000000
 0.00000000000000 0.00000000000000 4.84118837290445
# Cartesian coordinates in Angstrom.
PRIMCOORD
 10 1
Zn     1.21029709322611     1.21029709322611     1.21029709322611
Zn     3.63089127967834     3.63089127967834     1.21029709322611
Zn     3.63089127967834     1.21029709322611     3.63089127967834
Zn     1.21029709322611     3.63089127967834     3.63089127967834
O     2.42059418645223     0.00000000000000     0.00000000000000
O     0.00000000000000     2.42059418645223     0.00000000000000
O     0.00000000000000     0.00000000000000     2.42059418645223
O     2.42059418645223     2.42059418645223     0.00000000000000
O     2.42059418645223     0.00000000000000     2.42059418645223
O     0.00000000000000     2.42059418645223     2.42059418645223