CRYSTAL
# Primitive lattice vectors in Angstrom
PRIMVEC
 5.16257507789221 0.00000000000000 0.00000000000000
 -0.00000000000000 5.16257507789221 0.00000000000000
 0.00000000000000 0.00000000000000 5.16257507789221
# Cartesian coordinates in Angstrom.
PRIMCOORD
 14 1
Zn     0.00000000000000     0.00000000000000     0.00000000000000
Zn     2.58128753894611     2.58128753894611     0.00000000000000
Zn     2.58128753894611     0.00000000000000     2.58128753894611
Zn     0.00000000000000     2.58128753894611     2.58128753894611
O     2.58128753894611     0.00000000000000     0.00000000000000
O     0.00000000000000     2.58128753894611     0.00000000000000
O     0.00000000000000     0.00000000000000     2.58128753894611
O     2.58128753894611     2.58128753894611     2.58128753894611
O     3.87193130841916     3.87193130841916     1.29064376947305
O     3.87193130841916     1.29064376947305     3.87193130841916
O     1.29064376947305     3.87193130841916     3.87193130841916
O     3.87193130841916     1.29064376947305     1.29064376947305
O     1.29064376947305     3.87193130841916     1.29064376947305
O     1.29064376947305     1.29064376947305     3.87193130841916