CRYSTAL
# Primitive lattice vectors in Angstrom
PRIMVEC
 5.24386610408479 0.00000000000000 0.00000000000000
 -0.00000000000000 5.24386610408479 0.00000000000000
 0.00000000000000 0.00000000000000 5.24386610408479
# Cartesian coordinates in Angstrom.
PRIMCOORD
 14 1
Zr     0.00000000000000     0.00000000000000     0.00000000000000
Zr     2.62193305204239     2.62193305204239     0.00000000000000
Zr     2.62193305204239     0.00000000000000     2.62193305204239
Zr     0.00000000000000     2.62193305204239     2.62193305204239
O     2.62193305204239     0.00000000000000     0.00000000000000
O     0.00000000000000     2.62193305204239     0.00000000000000
O     0.00000000000000     0.00000000000000     2.62193305204239
O     2.62193305204239     2.62193305204239     2.62193305204239
O     3.93289957806359     3.93289957806359     1.31096652602120
O     3.93289957806359     1.31096652602120     3.93289957806359
O     1.31096652602120     3.93289957806359     3.93289957806359
O     3.93289957806359     1.31096652602120     1.31096652602120
O     1.31096652602120     3.93289957806359     1.31096652602120
O     1.31096652602120     1.31096652602120     3.93289957806359