CRYSTAL
# Primitive lattice vectors in Angstrom
PRIMVEC
 4.16655660095765 0.00000000000000 0.00000000000000
 -0.00000000000000 4.16655660095765 0.00000000000000
 0.00000000000000 0.00000000000000 4.16655660095765
# Cartesian coordinates in Angstrom.
PRIMCOORD
 4 1
Zr     0.00000000000000     0.00000000000000     0.00000000000000
O     2.08327830047882     0.00000000000000     0.00000000000000
O     0.00000000000000     2.08327830047882     0.00000000000000
O     0.00000000000000     0.00000000000000     2.08327830047882