CRYSTAL
# Primitive lattice vectors in Angstrom
PRIMVEC
 5.06987657150619 0.00000000000000 0.00000000000000
 -0.00000000000000 5.06987657150619 0.00000000000000
 0.00000000000000 0.00000000000000 5.06987657150619
# Cartesian coordinates in Angstrom.
PRIMCOORD
 10 1
Zr     1.26746914287655     1.26746914287655     1.26746914287655
Zr     3.80240742862965     3.80240742862965     1.26746914287655
Zr     3.80240742862965     1.26746914287655     3.80240742862965
Zr     1.26746914287655     3.80240742862965     3.80240742862965
O     2.53493828575310     0.00000000000000     0.00000000000000
O     0.00000000000000     2.53493828575310     0.00000000000000
O     0.00000000000000     0.00000000000000     2.53493828575310
O     2.53493828575310     2.53493828575310     0.00000000000000
O     2.53493828575310     0.00000000000000     2.53493828575310
O     0.00000000000000     2.53493828575310     2.53493828575310