CRYSTAL
# Primitive lattice vectors in Angstrom
PRIMVEC
 5.77297849737756 0.00000000000000 0.00000000000000
 -0.00000000000000 5.77297849737756 0.00000000000000
 0.00000000000000 0.00000000000000 5.77297849737756
# Cartesian coordinates in Angstrom.
PRIMCOORD
 14 1
Ac     0.00000000000000     0.00000000000000     0.00000000000000
Ac     2.88648924868878     2.88648924868878     0.00000000000000
Ac     2.88648924868878     0.00000000000000     2.88648924868878
Ac     0.00000000000000     2.88648924868878     2.88648924868878
O     2.88648924868878     0.00000000000000     0.00000000000000
O     0.00000000000000     2.88648924868878     0.00000000000000
O     0.00000000000000     0.00000000000000     2.88648924868878
O     2.88648924868878     2.88648924868878     2.88648924868878
O     4.32973387303317     4.32973387303317     1.44324462434439
O     4.32973387303317     1.44324462434439     4.32973387303317
O     1.44324462434439     4.32973387303317     4.32973387303317
O     4.32973387303317     1.44324462434439     1.44324462434439
O     1.44324462434439     4.32973387303317     1.44324462434439
O     1.44324462434439     1.44324462434439     4.32973387303317