CRYSTAL
# Primitive lattice vectors in Angstrom
PRIMVEC
 4.35128279192726 0.00000000000000 0.00000000000000
 -0.00000000000000 4.35128279192726 0.00000000000000
 0.00000000000000 0.00000000000000 4.35128279192726
# Cartesian coordinates in Angstrom.
PRIMCOORD
 4 1
Ac     0.00000000000000     0.00000000000000     0.00000000000000
O     2.17564139596362     0.00000000000000     0.00000000000000
O     0.00000000000000     2.17564139596362     0.00000000000000
O     0.00000000000000     0.00000000000000     2.17564139596362