CRYSTAL
# Primitive lattice vectors in Angstrom
PRIMVEC
 5.76363765681910 0.00000000000000 0.00000000000000
 -0.00000000000000 5.76363765681910 0.00000000000000
 0.00000000000000 0.00000000000000 5.76363765681910
# Cartesian coordinates in Angstrom.
PRIMCOORD
 10 1
Ac     1.44090941420477     1.44090941420477     1.44090941420477
Ac     4.32272824261433     4.32272824261433     1.44090941420477
Ac     4.32272824261433     1.44090941420477     4.32272824261433
Ac     1.44090941420477     4.32272824261433     4.32272824261433
O     2.88181882840956     0.00000000000000     0.00000000000000
O     0.00000000000000     2.88181882840956     0.00000000000000
O     0.00000000000000     0.00000000000000     2.88181882840956
O     2.88181882840956     2.88181882840956     0.00000000000000
O     2.88181882840956     0.00000000000000     2.88181882840956
O     0.00000000000000     2.88181882840956     2.88181882840956