CRYSTAL
# Primitive lattice vectors in Angstrom
PRIMVEC
 3.90106439647994 0.00000000000000 0.00000000000000
 -0.00000000000000 3.90106439647994 0.00000000000000
 0.00000000000000 0.00000000000000 3.90106439647994
# Cartesian coordinates in Angstrom.
PRIMCOORD
 4 1
Ag     0.00000000000000     0.00000000000000     0.00000000000000
O     1.95053219823997     0.00000000000000     0.00000000000000
O     0.00000000000000     1.95053219823997     0.00000000000000
O     0.00000000000000     0.00000000000000     1.95053219823997