CRYSTAL
# Primitive lattice vectors in Angstrom
PRIMVEC
 5.14220226688279 0.00000000000000 0.00000000000000
 -0.00000000000000 5.14220226688279 0.00000000000000
 0.00000000000000 0.00000000000000 5.14220226688279
# Cartesian coordinates in Angstrom.
PRIMCOORD
 14 1
Ag     0.00000000000000     0.00000000000000     0.00000000000000
Ag     2.57110113344140     2.57110113344140     0.00000000000000
Ag     2.57110113344140     0.00000000000000     2.57110113344140
Ag     0.00000000000000     2.57110113344140     2.57110113344140
O     2.57110113344140     0.00000000000000     0.00000000000000
O     0.00000000000000     2.57110113344140     0.00000000000000
O     0.00000000000000     0.00000000000000     2.57110113344140
O     2.57110113344140     2.57110113344140     2.57110113344140
O     3.85665170016209     3.85665170016209     1.28555056672070
O     3.85665170016209     1.28555056672070     3.85665170016209
O     1.28555056672070     3.85665170016209     3.85665170016209
O     3.85665170016209     1.28555056672070     1.28555056672070
O     1.28555056672070     3.85665170016209     1.28555056672070
O     1.28555056672070     1.28555056672070     3.85665170016209