CRYSTAL
# Primitive lattice vectors in Angstrom
PRIMVEC
 4.93992157070781 0.00000000000000 0.00000000000000
 -0.00000000000000 4.93992157070781 0.00000000000000
 0.00000000000000 0.00000000000000 4.93992157070781
# Cartesian coordinates in Angstrom.
PRIMCOORD
 10 1
Ag     1.23498039267695     1.23498039267695     1.23498039267695
Ag     3.70494117803086     3.70494117803086     1.23498039267695
Ag     3.70494117803086     1.23498039267695     3.70494117803086
Ag     1.23498039267695     3.70494117803086     3.70494117803086
O     2.46996078535391     0.00000000000000     0.00000000000000
O     0.00000000000000     2.46996078535391     0.00000000000000
O     0.00000000000000     0.00000000000000     2.46996078535391
O     2.46996078535391     2.46996078535391     0.00000000000000
O     2.46996078535391     0.00000000000000     2.46996078535391
O     0.00000000000000     2.46996078535391     2.46996078535391