CRYSTAL
# Primitive lattice vectors in Angstrom
PRIMVEC
 4.53925588209200 0.00000000000000 0.00000000000000
 -0.00000000000000 4.53925588209200 0.00000000000000
 0.00000000000000 0.00000000000000 4.53925588209200
# Cartesian coordinates in Angstrom.
PRIMCOORD
 10 1
Al     1.13481397052300     1.13481397052300     1.13481397052300
Al     3.40444191156900     3.40444191156900     1.13481397052300
Al     3.40444191156900     1.13481397052300     3.40444191156900
Al     1.13481397052300     3.40444191156900     3.40444191156900
O     2.26962794104600     0.00000000000000     0.00000000000000
O     0.00000000000000     2.26962794104600     0.00000000000000
O     0.00000000000000     0.00000000000000     2.26962794104600
O     2.26962794104600     2.26962794104600     0.00000000000000
O     2.26962794104600     0.00000000000000     2.26962794104600
O     0.00000000000000     2.26962794104600     2.26962794104600