CRYSTAL
# Primitive lattice vectors in Angstrom
PRIMVEC
 4.91204113242000 0.00000000000000 0.00000000000000
 -0.00000000000000 4.91204113242000 0.00000000000000
 0.00000000000000 0.00000000000000 4.91204113242000
# Cartesian coordinates in Angstrom.
PRIMCOORD
 14 1
Al     0.00000000000000     0.00000000000000     0.00000000000000
Al     2.45602056621000     2.45602056621000     0.00000000000000
Al     2.45602056621000     0.00000000000000     2.45602056621000
Al     0.00000000000000     2.45602056621000     2.45602056621000
O     2.45602056621000     0.00000000000000     0.00000000000000
O     0.00000000000000     2.45602056621000     0.00000000000000
O     0.00000000000000     0.00000000000000     2.45602056621000
O     2.45602056621000     2.45602056621000     2.45602056621000
O     3.68403084931500     3.68403084931500     1.22801028310500
O     3.68403084931500     1.22801028310500     3.68403084931500
O     1.22801028310500     3.68403084931500     3.68403084931500
O     3.68403084931500     1.22801028310500     1.22801028310500
O     1.22801028310500     3.68403084931500     1.22801028310500
O     1.22801028310500     1.22801028310500     3.68403084931500