CRYSTAL
# Primitive lattice vectors in Angstrom
PRIMVEC
 3.60533436059706 0.00000000000000 0.00000000000000
 -0.00000000000000 3.60533436059706 0.00000000000000
 0.00000000000000 0.00000000000000 3.60533436059706
# Cartesian coordinates in Angstrom.
PRIMCOORD
 4 1
Al     0.00000000000000     0.00000000000000     0.00000000000000
O     1.80266718029853     0.00000000000000     0.00000000000000
O     0.00000000000000     1.80266718029853     0.00000000000000
O     0.00000000000000     0.00000000000000     1.80266718029853