CRYSTAL
# Primitive lattice vectors in Angstrom
PRIMVEC
 5.13760148983619 0.00000000000000 0.00000000000000
 -0.00000000000000 5.13760148983619 0.00000000000000
 0.00000000000000 0.00000000000000 5.13760148983619
# Cartesian coordinates in Angstrom.
PRIMCOORD
 10 1
Am     1.28440037245905     1.28440037245905     1.28440037245905
Am     3.85320111737715     3.85320111737715     1.28440037245905
Am     3.85320111737715     1.28440037245905     3.85320111737715
Am     1.28440037245905     3.85320111737715     3.85320111737715
O     2.56880074491810     0.00000000000000     0.00000000000000
O     0.00000000000000     2.56880074491810     0.00000000000000
O     0.00000000000000     0.00000000000000     2.56880074491810
O     2.56880074491810     2.56880074491810     0.00000000000000
O     2.56880074491810     0.00000000000000     2.56880074491810
O     0.00000000000000     2.56880074491810     2.56880074491810