CRYSTAL
# Primitive lattice vectors in Angstrom
PRIMVEC
 5.17575152743198 0.00000000000000 0.00000000000000
 -0.00000000000000 5.17575152743198 0.00000000000000
 0.00000000000000 0.00000000000000 5.17575152743198
# Cartesian coordinates in Angstrom.
PRIMCOORD
 14 1
Am     0.00000000000000     0.00000000000000     0.00000000000000
Am     2.58787576371599     2.58787576371599     0.00000000000000
Am     2.58787576371599     0.00000000000000     2.58787576371599
Am     0.00000000000000     2.58787576371599     2.58787576371599
O     2.58787576371599     0.00000000000000     0.00000000000000
O     0.00000000000000     2.58787576371599     0.00000000000000
O     0.00000000000000     0.00000000000000     2.58787576371599
O     2.58787576371599     2.58787576371599     2.58787576371599
O     3.88181364557399     3.88181364557399     1.29393788185800
O     3.88181364557399     1.29393788185800     3.88181364557399
O     1.29393788185800     3.88181364557399     3.88181364557399
O     3.88181364557399     1.29393788185800     1.29393788185800
O     1.29393788185800     3.88181364557399     1.29393788185800
O     1.29393788185800     1.29393788185800     3.88181364557399