CRYSTAL
# Primitive lattice vectors in Angstrom
PRIMVEC
 5.40604257299271 0.00000000000000 0.00000000000000
 -0.00000000000000 5.40604257299271 0.00000000000000
 0.00000000000000 0.00000000000000 5.40604257299271
# Cartesian coordinates in Angstrom.
PRIMCOORD
 14 1
Ar     0.00000000000000     0.00000000000000     0.00000000000000
Ar     2.70302128649635     2.70302128649635     0.00000000000000
Ar     2.70302128649635     0.00000000000000     2.70302128649635
Ar     0.00000000000000     2.70302128649635     2.70302128649635
O     2.70302128649635     0.00000000000000     0.00000000000000
O     0.00000000000000     2.70302128649635     0.00000000000000
O     0.00000000000000     0.00000000000000     2.70302128649635
O     2.70302128649635     2.70302128649635     2.70302128649635
O     4.05453192974453     4.05453192974453     1.35151064324818
O     4.05453192974453     1.35151064324818     4.05453192974453
O     1.35151064324818     4.05453192974453     4.05453192974453
O     4.05453192974453     1.35151064324818     1.35151064324818
O     1.35151064324818     4.05453192974453     1.35151064324818
O     1.35151064324818     1.35151064324818     4.05453192974453