CRYSTAL
# Primitive lattice vectors in Angstrom
PRIMVEC
 5.49428259526408 0.00000000000000 0.00000000000000
 -0.00000000000000 5.49428259526408 0.00000000000000
 0.00000000000000 0.00000000000000 5.49428259526408
# Cartesian coordinates in Angstrom.
PRIMCOORD
 10 1
Ar     1.37357064881602     1.37357064881602     1.37357064881602
Ar     4.12071194644806     4.12071194644806     1.37357064881602
Ar     4.12071194644806     1.37357064881602     4.12071194644806
Ar     1.37357064881602     4.12071194644806     4.12071194644806
O     2.74714129763204     0.00000000000000     0.00000000000000
O     0.00000000000000     2.74714129763204     0.00000000000000
O     0.00000000000000     0.00000000000000     2.74714129763204
O     2.74714129763204     2.74714129763204     0.00000000000000
O     2.74714129763204     0.00000000000000     2.74714129763204
O     0.00000000000000     2.74714129763204     2.74714129763204