CRYSTAL
# Primitive lattice vectors in Angstrom
PRIMVEC
 3.85270860009216 0.00000000000000 0.00000000000000
 -0.00000000000000 3.85270860009216 0.00000000000000
 0.00000000000000 0.00000000000000 3.85270860009216
# Cartesian coordinates in Angstrom.
PRIMCOORD
 4 1
Ar     0.00000000000000     0.00000000000000     0.00000000000000
O     1.92635430004607     0.00000000000000     0.00000000000000
O     0.00000000000000     1.92635430004607     0.00000000000000
O     0.00000000000000     0.00000000000000     1.92635430004607