CRYSTAL
# Primitive lattice vectors in Angstrom
PRIMVEC
 4.96089386392638 0.00000000000000 0.00000000000000
 -0.00000000000000 4.96089386392638 0.00000000000000
 0.00000000000000 0.00000000000000 4.96089386392638
# Cartesian coordinates in Angstrom.
PRIMCOORD
 10 1
As     1.24022346598159     1.24022346598159     1.24022346598159
As     3.72067039794479     3.72067039794479     1.24022346598159
As     3.72067039794479     1.24022346598159     3.72067039794479
As     1.24022346598159     3.72067039794479     3.72067039794479
O     2.48044693196320     0.00000000000000     0.00000000000000
O     0.00000000000000     2.48044693196320     0.00000000000000
O     0.00000000000000     0.00000000000000     2.48044693196320
O     2.48044693196320     2.48044693196320     0.00000000000000
O     2.48044693196320     0.00000000000000     2.48044693196320
O     0.00000000000000     2.48044693196320     2.48044693196320