CRYSTAL
# Primitive lattice vectors in Angstrom
PRIMVEC
 5.10554596547260 0.00000000000000 0.00000000000000
 -0.00000000000000 5.10554596547260 0.00000000000000
 0.00000000000000 0.00000000000000 5.10554596547260
# Cartesian coordinates in Angstrom.
PRIMCOORD
 14 1
As     0.00000000000000     0.00000000000000     0.00000000000000
As     2.55277298273630     2.55277298273630     0.00000000000000
As     2.55277298273630     0.00000000000000     2.55277298273630
As     0.00000000000000     2.55277298273630     2.55277298273630
O     2.55277298273630     0.00000000000000     0.00000000000000
O     0.00000000000000     2.55277298273630     0.00000000000000
O     0.00000000000000     0.00000000000000     2.55277298273630
O     2.55277298273630     2.55277298273630     2.55277298273630
O     3.82915947410445     3.82915947410445     1.27638649136815
O     3.82915947410445     1.27638649136815     3.82915947410445
O     1.27638649136815     3.82915947410445     3.82915947410445
O     3.82915947410445     1.27638649136815     1.27638649136815
O     1.27638649136815     3.82915947410445     1.27638649136815
O     1.27638649136815     1.27638649136815     3.82915947410445