CRYSTAL
# Primitive lattice vectors in Angstrom
PRIMVEC
 3.54670443710715 0.00000000000000 0.00000000000000
 -0.00000000000000 3.54670443710715 0.00000000000000
 0.00000000000000 0.00000000000000 3.54670443710715
# Cartesian coordinates in Angstrom.
PRIMCOORD
 4 1
As     0.00000000000000     0.00000000000000     0.00000000000000
O     1.77335221855357     0.00000000000000     0.00000000000000
O     0.00000000000000     1.77335221855357     0.00000000000000
O     0.00000000000000     0.00000000000000     1.77335221855357