CRYSTAL
# Primitive lattice vectors in Angstrom
PRIMVEC
 5.40326496754479 0.00000000000000 0.00000000000000
 -0.00000000000000 5.40326496754479 0.00000000000000
 0.00000000000000 0.00000000000000 5.40326496754479
# Cartesian coordinates in Angstrom.
PRIMCOORD
 14 1
At     0.00000000000000     0.00000000000000     0.00000000000000
At     2.70163248377240     2.70163248377240     0.00000000000000
At     2.70163248377240     0.00000000000000     2.70163248377240
At     0.00000000000000     2.70163248377240     2.70163248377240
O     2.70163248377240     0.00000000000000     0.00000000000000
O     0.00000000000000     2.70163248377240     0.00000000000000
O     0.00000000000000     0.00000000000000     2.70163248377240
O     2.70163248377240     2.70163248377240     2.70163248377240
O     4.05244872565859     4.05244872565859     1.35081624188620
O     4.05244872565859     1.35081624188620     4.05244872565859
O     1.35081624188620     4.05244872565859     4.05244872565859
O     4.05244872565859     1.35081624188620     1.35081624188620
O     1.35081624188620     4.05244872565859     1.35081624188620
O     1.35081624188620     1.35081624188620     4.05244872565859