CRYSTAL
# Primitive lattice vectors in Angstrom
PRIMVEC
 5.48925182578086 0.00000000000000 0.00000000000000
 -0.00000000000000 5.48925182578086 0.00000000000000
 0.00000000000000 0.00000000000000 5.48925182578086
# Cartesian coordinates in Angstrom.
PRIMCOORD
 10 1
At     1.37231295644521     1.37231295644521     1.37231295644521
At     4.11693886933565     4.11693886933565     1.37231295644521
At     4.11693886933565     1.37231295644521     4.11693886933565
At     1.37231295644521     4.11693886933565     4.11693886933565
O     2.74462591289044     0.00000000000000     0.00000000000000
O     0.00000000000000     2.74462591289044     0.00000000000000
O     0.00000000000000     0.00000000000000     2.74462591289044
O     2.74462591289044     2.74462591289044     0.00000000000000
O     2.74462591289044     0.00000000000000     2.74462591289044
O     0.00000000000000     2.74462591289044     2.74462591289044