CRYSTAL
# Primitive lattice vectors in Angstrom
PRIMVEC
 4.07795582428498 0.00000000000000 0.00000000000000
 -0.00000000000000 4.07795582428498 0.00000000000000
 0.00000000000000 0.00000000000000 4.07795582428498
# Cartesian coordinates in Angstrom.
PRIMCOORD
 4 1
At     0.00000000000000     0.00000000000000     0.00000000000000
O     2.03897791214249     0.00000000000000     0.00000000000000
O     0.00000000000000     2.03897791214249     0.00000000000000
O     0.00000000000000     0.00000000000000     2.03897791214249