CRYSTAL
# Primitive lattice vectors in Angstrom
PRIMVEC
 4.99664404979456 0.00000000000000 0.00000000000000
 -0.00000000000000 4.99664404979456 0.00000000000000
 0.00000000000000 0.00000000000000 4.99664404979456
# Cartesian coordinates in Angstrom.
PRIMCOORD
 10 1
Au     1.24916101244864     1.24916101244864     1.24916101244864
Au     3.74748303734592     3.74748303734592     1.24916101244864
Au     3.74748303734592     1.24916101244864     3.74748303734592
Au     1.24916101244864     3.74748303734592     3.74748303734592
O     2.49832202489728     0.00000000000000     0.00000000000000
O     0.00000000000000     2.49832202489728     0.00000000000000
O     0.00000000000000     0.00000000000000     2.49832202489728
O     2.49832202489728     2.49832202489728     0.00000000000000
O     2.49832202489728     0.00000000000000     2.49832202489728
O     0.00000000000000     2.49832202489728     2.49832202489728