CRYSTAL
# Primitive lattice vectors in Angstrom
PRIMVEC
 3.89433083516426 0.00000000000000 0.00000000000000
 -0.00000000000000 3.89433083516426 0.00000000000000
 0.00000000000000 0.00000000000000 3.89433083516426
# Cartesian coordinates in Angstrom.
PRIMCOORD
 4 1
Au     0.00000000000000     0.00000000000000     0.00000000000000
O     1.94716541758213     0.00000000000000     0.00000000000000
O     0.00000000000000     1.94716541758213     0.00000000000000
O     0.00000000000000     0.00000000000000     1.94716541758213