CRYSTAL
# Primitive lattice vectors in Angstrom
PRIMVEC
 5.16631937505418 0.00000000000000 0.00000000000000
 -0.00000000000000 5.16631937505418 0.00000000000000
 0.00000000000000 0.00000000000000 5.16631937505418
# Cartesian coordinates in Angstrom.
PRIMCOORD
 14 1
Au     0.00000000000000     0.00000000000000     0.00000000000000
Au     2.58315968752709     2.58315968752709     0.00000000000000
Au     2.58315968752709     0.00000000000000     2.58315968752709
Au     0.00000000000000     2.58315968752709     2.58315968752709
O     2.58315968752709     0.00000000000000     0.00000000000000
O     0.00000000000000     2.58315968752709     0.00000000000000
O     0.00000000000000     0.00000000000000     2.58315968752709
O     2.58315968752709     2.58315968752709     2.58315968752709
O     3.87473953129064     3.87473953129064     1.29157984376355
O     3.87473953129064     1.29157984376355     3.87473953129064
O     1.29157984376355     3.87473953129064     3.87473953129064
O     3.87473953129064     1.29157984376355     1.29157984376355
O     1.29157984376355     3.87473953129064     1.29157984376355
O     1.29157984376355     1.29157984376355     3.87473953129064