CRYSTAL
# Primitive lattice vectors in Angstrom
PRIMVEC
 4.08787540239822 0.00000000000000 0.00000000000000
 -0.00000000000000 4.08787540239822 0.00000000000000
 0.00000000000000 0.00000000000000 4.08787540239822
# Cartesian coordinates in Angstrom.
PRIMCOORD
 10 1
B     1.02196885059955     1.02196885059955     1.02196885059955
B     3.06590655179867     3.06590655179867     1.02196885059955
B     3.06590655179867     1.02196885059955     3.06590655179867
B     1.02196885059955     3.06590655179867     3.06590655179867
O     2.04393770119911     0.00000000000000     0.00000000000000
O     0.00000000000000     2.04393770119911     0.00000000000000
O     0.00000000000000     0.00000000000000     2.04393770119911
O     2.04393770119911     2.04393770119911     0.00000000000000
O     2.04393770119911     0.00000000000000     2.04393770119911
O     0.00000000000000     2.04393770119911     2.04393770119911