CRYSTAL
# Primitive lattice vectors in Angstrom
PRIMVEC
 4.65475417806115 0.00000000000000 0.00000000000000
 -0.00000000000000 4.65475417806115 0.00000000000000
 0.00000000000000 0.00000000000000 4.65475417806115
# Cartesian coordinates in Angstrom.
PRIMCOORD
 14 1
B     0.00000000000000     0.00000000000000     0.00000000000000
B     2.32737708903057     2.32737708903057     0.00000000000000
B     2.32737708903057     0.00000000000000     2.32737708903057
B     0.00000000000000     2.32737708903057     2.32737708903057
O     2.32737708903057     0.00000000000000     0.00000000000000
O     0.00000000000000     2.32737708903057     0.00000000000000
O     0.00000000000000     0.00000000000000     2.32737708903057
O     2.32737708903057     2.32737708903057     2.32737708903057
O     3.49106563354586     3.49106563354586     1.16368854451529
O     3.49106563354586     1.16368854451529     3.49106563354586
O     1.16368854451529     3.49106563354586     3.49106563354586
O     3.49106563354586     1.16368854451529     1.16368854451529
O     1.16368854451529     3.49106563354586     1.16368854451529
O     1.16368854451529     1.16368854451529     3.49106563354586