CRYSTAL
# Primitive lattice vectors in Angstrom
PRIMVEC
 3.16937859996826 0.00000000000000 0.00000000000000
 -0.00000000000000 3.16937859996826 0.00000000000000
 0.00000000000000 0.00000000000000 3.16937859996826
# Cartesian coordinates in Angstrom.
PRIMCOORD
 4 1
B     0.00000000000000     0.00000000000000     0.00000000000000
O     1.58468929998412     0.00000000000000     0.00000000000000
O     0.00000000000000     1.58468929998412     0.00000000000000
O     0.00000000000000     0.00000000000000     1.58468929998412