CRYSTAL
# Primitive lattice vectors in Angstrom
PRIMVEC
 5.96779862146760 0.00000000000000 0.00000000000000
 -0.00000000000000 5.96779862146760 0.00000000000000
 0.00000000000000 0.00000000000000 5.96779862146760
# Cartesian coordinates in Angstrom.
PRIMCOORD
 10 1
Ba     1.49194965536690     1.49194965536690     1.49194965536690
Ba     4.47584896610071     4.47584896610071     1.49194965536690
Ba     4.47584896610071     1.49194965536690     4.47584896610071
Ba     1.49194965536690     4.47584896610071     4.47584896610071
O     2.98389931073381     0.00000000000000     0.00000000000000
O     0.00000000000000     2.98389931073381     0.00000000000000
O     0.00000000000000     0.00000000000000     2.98389931073381
O     2.98389931073381     2.98389931073381     0.00000000000000
O     2.98389931073381     0.00000000000000     2.98389931073381
O     0.00000000000000     2.98389931073381     2.98389931073381