CRYSTAL
# Primitive lattice vectors in Angstrom
PRIMVEC
 5.87598519742094 0.00000000000000 0.00000000000000
 -0.00000000000000 5.87598519742094 0.00000000000000
 0.00000000000000 0.00000000000000 5.87598519742094
# Cartesian coordinates in Angstrom.
PRIMCOORD
 14 1
Ba     0.00000000000000     0.00000000000000     0.00000000000000
Ba     2.93799259871047     2.93799259871047     0.00000000000000
Ba     2.93799259871047     0.00000000000000     2.93799259871047
Ba     0.00000000000000     2.93799259871047     2.93799259871047
O     2.93799259871047     0.00000000000000     0.00000000000000
O     0.00000000000000     2.93799259871047     0.00000000000000
O     0.00000000000000     0.00000000000000     2.93799259871047
O     2.93799259871047     2.93799259871047     2.93799259871047
O     4.40698889806570     4.40698889806570     1.46899629935523
O     4.40698889806570     1.46899629935523     4.40698889806570
O     1.46899629935523     4.40698889806570     4.40698889806570
O     4.40698889806570     1.46899629935523     1.46899629935523
O     1.46899629935523     4.40698889806570     1.46899629935523
O     1.46899629935523     1.46899629935523     4.40698889806570