CRYSTAL
# Primitive lattice vectors in Angstrom
PRIMVEC
 4.27630740992856 0.00000000000000 0.00000000000000
 -0.00000000000000 4.27630740992856 0.00000000000000
 0.00000000000000 0.00000000000000 4.27630740992856
# Cartesian coordinates in Angstrom.
PRIMCOORD
 4 1
Ba     0.00000000000000     0.00000000000000     0.00000000000000
O     2.13815370496428     0.00000000000000     0.00000000000000
O     0.00000000000000     2.13815370496428     0.00000000000000
O     0.00000000000000     0.00000000000000     2.13815370496428