CRYSTAL
# Primitive lattice vectors in Angstrom
PRIMVEC
 4.75089918890576 0.00000000000000 0.00000000000000
 -0.00000000000000 4.75089918890576 0.00000000000000
 0.00000000000000 0.00000000000000 4.75089918890576
# Cartesian coordinates in Angstrom.
PRIMCOORD
 14 1
Be     0.00000000000000     0.00000000000000     0.00000000000000
Be     2.37544959445288     2.37544959445288     0.00000000000000
Be     2.37544959445288     0.00000000000000     2.37544959445288
Be     0.00000000000000     2.37544959445288     2.37544959445288
O     2.37544959445288     0.00000000000000     0.00000000000000
O     0.00000000000000     2.37544959445288     0.00000000000000
O     0.00000000000000     0.00000000000000     2.37544959445288
O     2.37544959445288     2.37544959445288     2.37544959445288
O     3.56317439167932     3.56317439167932     1.18772479722644
O     3.56317439167932     1.18772479722644     3.56317439167932
O     1.18772479722644     3.56317439167932     3.56317439167932
O     3.56317439167932     1.18772479722644     1.18772479722644
O     1.18772479722644     3.56317439167932     1.18772479722644
O     1.18772479722644     1.18772479722644     3.56317439167932