CRYSTAL
# Primitive lattice vectors in Angstrom
PRIMVEC
 3.30696955725966 0.00000000000000 0.00000000000000
 -0.00000000000000 3.30696955725966 0.00000000000000
 0.00000000000000 0.00000000000000 3.30696955725966
# Cartesian coordinates in Angstrom.
PRIMCOORD
 4 1
Be     0.00000000000000     0.00000000000000     0.00000000000000
O     1.65348477862983     0.00000000000000     0.00000000000000
O     0.00000000000000     1.65348477862983     0.00000000000000
O     0.00000000000000     0.00000000000000     1.65348477862983