CRYSTAL
# Primitive lattice vectors in Angstrom
PRIMVEC
 4.18870669849206 0.00000000000000 0.00000000000000
 -0.00000000000000 4.18870669849206 0.00000000000000
 0.00000000000000 0.00000000000000 4.18870669849206
# Cartesian coordinates in Angstrom.
PRIMCOORD
 10 1
Be     1.04717667462301     1.04717667462301     1.04717667462301
Be     3.14153002386904     3.14153002386904     1.04717667462301
Be     3.14153002386904     1.04717667462301     3.14153002386904
Be     1.04717667462301     3.14153002386904     3.14153002386904
O     2.09435334924603     0.00000000000000     0.00000000000000
O     0.00000000000000     2.09435334924603     0.00000000000000
O     0.00000000000000     0.00000000000000     2.09435334924603
O     2.09435334924603     2.09435334924603     0.00000000000000
O     2.09435334924603     0.00000000000000     2.09435334924603
O     0.00000000000000     2.09435334924603     2.09435334924603