CRYSTAL
# Primitive lattice vectors in Angstrom
PRIMVEC
 4.11305030629706 0.00000000000000 0.00000000000000
 -0.00000000000000 4.11305030629706 0.00000000000000
 0.00000000000000 0.00000000000000 4.11305030629706
# Cartesian coordinates in Angstrom.
PRIMCOORD
 4 1
Bi     0.00000000000000     0.00000000000000     0.00000000000000
O     2.05652515314853     0.00000000000000     0.00000000000000
O     0.00000000000000     2.05652515314853     0.00000000000000
O     0.00000000000000     0.00000000000000     2.05652515314853