CRYSTAL
# Primitive lattice vectors in Angstrom
PRIMVEC
 5.46737907692705 0.00000000000000 0.00000000000000
 -0.00000000000000 5.46737907692705 0.00000000000000
 0.00000000000000 0.00000000000000 5.46737907692705
# Cartesian coordinates in Angstrom.
PRIMCOORD
 10 1
Bi     1.36684476923176     1.36684476923176     1.36684476923176
Bi     4.10053430769529     4.10053430769529     1.36684476923176
Bi     4.10053430769529     1.36684476923176     4.10053430769529
Bi     1.36684476923176     4.10053430769529     4.10053430769529
O     2.73368953846353     0.00000000000000     0.00000000000000
O     0.00000000000000     2.73368953846353     0.00000000000000
O     0.00000000000000     0.00000000000000     2.73368953846353
O     2.73368953846353     2.73368953846353     0.00000000000000
O     2.73368953846353     0.00000000000000     2.73368953846353
O     0.00000000000000     2.73368953846353     2.73368953846353