CRYSTAL
# Primitive lattice vectors in Angstrom
PRIMVEC
 5.47438854643937 0.00000000000000 0.00000000000000
 -0.00000000000000 5.47438854643937 0.00000000000000
 0.00000000000000 0.00000000000000 5.47438854643937
# Cartesian coordinates in Angstrom.
PRIMCOORD
 14 1
Bi     0.00000000000000     0.00000000000000     0.00000000000000
Bi     2.73719427321968     2.73719427321968     0.00000000000000
Bi     2.73719427321968     0.00000000000000     2.73719427321968
Bi     0.00000000000000     2.73719427321968     2.73719427321968
O     2.73719427321968     0.00000000000000     0.00000000000000
O     0.00000000000000     2.73719427321968     0.00000000000000
O     0.00000000000000     0.00000000000000     2.73719427321968
O     2.73719427321968     2.73719427321968     2.73719427321968
O     4.10579140982953     4.10579140982953     1.36859713660984
O     4.10579140982953     1.36859713660984     4.10579140982953
O     1.36859713660984     4.10579140982953     4.10579140982953
O     4.10579140982953     1.36859713660984     1.36859713660984
O     1.36859713660984     4.10579140982953     1.36859713660984
O     1.36859713660984     1.36859713660984     4.10579140982953