CRYSTAL
# Primitive lattice vectors in Angstrom
PRIMVEC
 5.12953918847563 0.00000000000000 0.00000000000000
 -0.00000000000000 5.12953918847563 0.00000000000000
 0.00000000000000 0.00000000000000 5.12953918847563
# Cartesian coordinates in Angstrom.
PRIMCOORD
 10 1
Bk     1.28238479711891     1.28238479711891     1.28238479711891
Bk     3.84715439135673     3.84715439135673     1.28238479711891
Bk     3.84715439135673     1.28238479711891     3.84715439135673
Bk     1.28238479711891     3.84715439135673     3.84715439135673
O     2.56476959423782     0.00000000000000     0.00000000000000
O     0.00000000000000     2.56476959423782     0.00000000000000
O     0.00000000000000     0.00000000000000     2.56476959423782
O     2.56476959423782     2.56476959423782     0.00000000000000
O     2.56476959423782     0.00000000000000     2.56476959423782
O     0.00000000000000     2.56476959423782     2.56476959423782