CRYSTAL
# Primitive lattice vectors in Angstrom
PRIMVEC
 3.98477266238145 0.00000000000000 0.00000000000000
 -0.00000000000000 3.98477266238145 0.00000000000000
 0.00000000000000 0.00000000000000 3.98477266238145
# Cartesian coordinates in Angstrom.
PRIMCOORD
 4 1
Bk     0.00000000000000     0.00000000000000     0.00000000000000
O     1.99238633119072     0.00000000000000     0.00000000000000
O     0.00000000000000     1.99238633119072     0.00000000000000
O     0.00000000000000     0.00000000000000     1.99238633119072