CRYSTAL
# Primitive lattice vectors in Angstrom
PRIMVEC
 5.17967960791918 0.00000000000000 0.00000000000000
 -0.00000000000000 5.17967960791918 0.00000000000000
 0.00000000000000 0.00000000000000 5.17967960791918
# Cartesian coordinates in Angstrom.
PRIMCOORD
 14 1
Bk     0.00000000000000     0.00000000000000     0.00000000000000
Bk     2.58983980395959     2.58983980395959     0.00000000000000
Bk     2.58983980395959     0.00000000000000     2.58983980395959
Bk     0.00000000000000     2.58983980395959     2.58983980395959
O     2.58983980395959     0.00000000000000     0.00000000000000
O     0.00000000000000     2.58983980395959     0.00000000000000
O     0.00000000000000     0.00000000000000     2.58983980395959
O     2.58983980395959     2.58983980395959     2.58983980395959
O     3.88475970593938     3.88475970593938     1.29491990197979
O     3.88475970593938     1.29491990197979     3.88475970593938
O     1.29491990197979     3.88475970593938     3.88475970593938
O     3.88475970593938     1.29491990197979     1.29491990197979
O     1.29491990197979     3.88475970593938     1.29491990197979
O     1.29491990197979     1.29491990197979     3.88475970593938