CRYSTAL
# Primitive lattice vectors in Angstrom
PRIMVEC
 5.13741450710362 0.00000000000000 0.00000000000000
 -0.00000000000000 5.13741450710362 0.00000000000000
 0.00000000000000 0.00000000000000 5.13741450710362
# Cartesian coordinates in Angstrom.
PRIMCOORD
 10 1
Br     1.28435362677590     1.28435362677590     1.28435362677590
Br     3.85306088032771     3.85306088032771     1.28435362677590
Br     3.85306088032771     1.28435362677590     3.85306088032771
Br     1.28435362677590     3.85306088032771     3.85306088032771
O     2.56870725355181     0.00000000000000     0.00000000000000
O     0.00000000000000     2.56870725355181     0.00000000000000
O     0.00000000000000     0.00000000000000     2.56870725355181
O     2.56870725355181     2.56870725355181     0.00000000000000
O     2.56870725355181     0.00000000000000     2.56870725355181
O     0.00000000000000     2.56870725355181     2.56870725355181