CRYSTAL
# Primitive lattice vectors in Angstrom
PRIMVEC
 3.77606109949751 0.00000000000000 0.00000000000000
 -0.00000000000000 3.77606109949751 0.00000000000000
 0.00000000000000 0.00000000000000 3.77606109949751
# Cartesian coordinates in Angstrom.
PRIMCOORD
 4 1
Br     0.00000000000000     0.00000000000000     0.00000000000000
O     1.88803054974875     0.00000000000000     0.00000000000000
O     0.00000000000000     1.88803054974875     0.00000000000000
O     0.00000000000000     0.00000000000000     1.88803054974875