CRYSTAL
# Primitive lattice vectors in Angstrom
PRIMVEC
 5.21451383321315 0.00000000000000 0.00000000000000
 -0.00000000000000 5.21451383321315 0.00000000000000
 0.00000000000000 0.00000000000000 5.21451383321315
# Cartesian coordinates in Angstrom.
PRIMCOORD
 14 1
Br     0.00000000000000     0.00000000000000     0.00000000000000
Br     2.60725691660657     2.60725691660657     0.00000000000000
Br     2.60725691660657     0.00000000000000     2.60725691660657
Br     0.00000000000000     2.60725691660657     2.60725691660657
O     2.60725691660657     0.00000000000000     0.00000000000000
O     0.00000000000000     2.60725691660657     0.00000000000000
O     0.00000000000000     0.00000000000000     2.60725691660657
O     2.60725691660657     2.60725691660657     2.60725691660657
O     3.91088537490986     3.91088537490986     1.30362845830329
O     3.91088537490986     1.30362845830329     3.91088537490986
O     1.30362845830329     3.91088537490986     3.91088537490986
O     3.91088537490986     1.30362845830329     1.30362845830329
O     1.30362845830329     3.91088537490986     1.30362845830329
O     1.30362845830329     1.30362845830329     3.91088537490986