CRYSTAL
# Primitive lattice vectors in Angstrom
PRIMVEC
 4.27875541636442 0.00000000000000 0.00000000000000
 -0.00000000000000 4.27875541636442 0.00000000000000
 0.00000000000000 0.00000000000000 4.27875541636442
# Cartesian coordinates in Angstrom.
PRIMCOORD
 10 1
C     1.06968885409110     1.06968885409110     1.06968885409110
C     3.20906656227332     3.20906656227332     1.06968885409110
C     3.20906656227332     1.06968885409110     3.20906656227332
C     1.06968885409110     3.20906656227332     3.20906656227332
O     2.13937770818221     0.00000000000000     0.00000000000000
O     0.00000000000000     2.13937770818221     0.00000000000000
O     0.00000000000000     0.00000000000000     2.13937770818221
O     2.13937770818221     2.13937770818221     0.00000000000000
O     2.13937770818221     0.00000000000000     2.13937770818221
O     0.00000000000000     2.13937770818221     2.13937770818221