CRYSTAL
# Primitive lattice vectors in Angstrom
PRIMVEC
 4.74435159079063 0.00000000000000 0.00000000000000
 -0.00000000000000 4.74435159079063 0.00000000000000
 0.00000000000000 0.00000000000000 4.74435159079063
# Cartesian coordinates in Angstrom.
PRIMCOORD
 14 1
C     0.00000000000000     0.00000000000000     0.00000000000000
C     2.37217579539532     2.37217579539532     0.00000000000000
C     2.37217579539532     0.00000000000000     2.37217579539532
C     0.00000000000000     2.37217579539532     2.37217579539532
O     2.37217579539532     0.00000000000000     0.00000000000000
O     0.00000000000000     2.37217579539532     0.00000000000000
O     0.00000000000000     0.00000000000000     2.37217579539532
O     2.37217579539532     2.37217579539532     2.37217579539532
O     3.55826369309298     3.55826369309298     1.18608789769766
O     3.55826369309298     1.18608789769766     3.55826369309298
O     1.18608789769766     3.55826369309298     3.55826369309298
O     3.55826369309298     1.18608789769766     1.18608789769766
O     1.18608789769766     3.55826369309298     1.18608789769766
O     1.18608789769766     1.18608789769766     3.55826369309298