CRYSTAL
# Primitive lattice vectors in Angstrom
PRIMVEC
 3.12448690414829 0.00000000000000 0.00000000000000
 -0.00000000000000 3.12448690414829 0.00000000000000
 0.00000000000000 0.00000000000000 3.12448690414829
# Cartesian coordinates in Angstrom.
PRIMCOORD
 4 1
C     0.00000000000000     0.00000000000000     0.00000000000000
O     1.56224345207414     0.00000000000000     0.00000000000000
O     0.00000000000000     1.56224345207414     0.00000000000000
O     0.00000000000000     0.00000000000000     1.56224345207414