CRYSTAL
# Primitive lattice vectors in Angstrom
PRIMVEC
 5.27780804489699 0.00000000000000 0.00000000000000
 -0.00000000000000 5.27780804489699 0.00000000000000
 0.00000000000000 0.00000000000000 5.27780804489699
# Cartesian coordinates in Angstrom.
PRIMCOORD
 10 1
Ca     1.31945201122424     1.31945201122424     1.31945201122424
Ca     3.95835603367274     3.95835603367274     1.31945201122424
Ca     3.95835603367274     1.31945201122424     3.95835603367274
Ca     1.31945201122424     3.95835603367274     3.95835603367274
O     2.63890402244850     0.00000000000000     0.00000000000000
O     0.00000000000000     2.63890402244850     0.00000000000000
O     0.00000000000000     0.00000000000000     2.63890402244850
O     2.63890402244850     2.63890402244850     0.00000000000000
O     2.63890402244850     0.00000000000000     2.63890402244850
O     0.00000000000000     2.63890402244850     2.63890402244850