CRYSTAL
# Primitive lattice vectors in Angstrom
PRIMVEC
 5.34781063111995 0.00000000000000 0.00000000000000
 -0.00000000000000 5.34781063111995 0.00000000000000
 0.00000000000000 0.00000000000000 5.34781063111995
# Cartesian coordinates in Angstrom.
PRIMCOORD
 14 1
Ca     0.00000000000000     0.00000000000000     0.00000000000000
Ca     2.67390531555998     2.67390531555998     0.00000000000000
Ca     2.67390531555998     0.00000000000000     2.67390531555998
Ca     0.00000000000000     2.67390531555998     2.67390531555998
O     2.67390531555998     0.00000000000000     0.00000000000000
O     0.00000000000000     2.67390531555998     0.00000000000000
O     0.00000000000000     0.00000000000000     2.67390531555998
O     2.67390531555998     2.67390531555998     2.67390531555998
O     4.01085797333997     4.01085797333997     1.33695265777999
O     4.01085797333997     1.33695265777999     4.01085797333997
O     1.33695265777999     4.01085797333997     4.01085797333997
O     4.01085797333997     1.33695265777999     1.33695265777999
O     1.33695265777999     4.01085797333997     1.33695265777999
O     1.33695265777999     1.33695265777999     4.01085797333997