CRYSTAL
# Primitive lattice vectors in Angstrom
PRIMVEC
 4.38869181780976 0.00000000000000 0.00000000000000
 -0.00000000000000 4.38869181780976 0.00000000000000
 0.00000000000000 0.00000000000000 4.38869181780976
# Cartesian coordinates in Angstrom.
PRIMCOORD
 4 1
Ca     0.00000000000000     0.00000000000000     0.00000000000000
O     2.19434590890487     0.00000000000000     0.00000000000000
O     0.00000000000000     2.19434590890487     0.00000000000000
O     0.00000000000000     0.00000000000000     2.19434590890487