CRYSTAL
# Primitive lattice vectors in Angstrom
PRIMVEC
 4.04712151545407 0.00000000000000 0.00000000000000
 -0.00000000000000 4.04712151545407 0.00000000000000
 0.00000000000000 0.00000000000000 4.04712151545407
# Cartesian coordinates in Angstrom.
PRIMCOORD
 4 1
Cd     0.00000000000000     0.00000000000000     0.00000000000000
O     2.02356075772703     0.00000000000000     0.00000000000000
O     0.00000000000000     2.02356075772703     0.00000000000000
O     0.00000000000000     0.00000000000000     2.02356075772703