CRYSTAL
# Primitive lattice vectors in Angstrom
PRIMVEC
 5.26700760970550 0.00000000000000 0.00000000000000
 -0.00000000000000 5.26700760970550 0.00000000000000
 0.00000000000000 0.00000000000000 5.26700760970550
# Cartesian coordinates in Angstrom.
PRIMCOORD
 14 1
Cd     0.00000000000000     0.00000000000000     0.00000000000000
Cd     2.63350380485275     2.63350380485275     0.00000000000000
Cd     2.63350380485275     0.00000000000000     2.63350380485275
Cd     0.00000000000000     2.63350380485275     2.63350380485275
O     2.63350380485275     0.00000000000000     0.00000000000000
O     0.00000000000000     2.63350380485275     0.00000000000000
O     0.00000000000000     0.00000000000000     2.63350380485275
O     2.63350380485275     2.63350380485275     2.63350380485275
O     3.95025570727913     3.95025570727913     1.31675190242638
O     3.95025570727913     1.31675190242638     3.95025570727913
O     1.31675190242638     3.95025570727913     3.95025570727913
O     3.95025570727913     1.31675190242638     1.31675190242638
O     1.31675190242638     3.95025570727913     1.31675190242638
O     1.31675190242638     1.31675190242638     3.95025570727913