CRYSTAL
# Primitive lattice vectors in Angstrom
PRIMVEC
 5.11083248694713 0.00000000000000 0.00000000000000
 -0.00000000000000 5.11083248694713 0.00000000000000
 0.00000000000000 0.00000000000000 5.11083248694713
# Cartesian coordinates in Angstrom.
PRIMCOORD
 10 1
Cd     1.27770812173678     1.27770812173678     1.27770812173678
Cd     3.83312436521035     3.83312436521035     1.27770812173678
Cd     3.83312436521035     1.27770812173678     3.83312436521035
Cd     1.27770812173678     3.83312436521035     3.83312436521035
O     2.55541624347357     0.00000000000000     0.00000000000000
O     0.00000000000000     2.55541624347357     0.00000000000000
O     0.00000000000000     0.00000000000000     2.55541624347357
O     2.55541624347357     2.55541624347357     0.00000000000000
O     2.55541624347357     0.00000000000000     2.55541624347357
O     0.00000000000000     2.55541624347357     2.55541624347357