CRYSTAL
# Primitive lattice vectors in Angstrom
PRIMVEC
 4.22567736267844 0.00000000000000 0.00000000000000
 -0.00000000000000 4.22567736267844 0.00000000000000
 0.00000000000000 0.00000000000000 4.22567736267844
# Cartesian coordinates in Angstrom.
PRIMCOORD
 4 1
Ce     0.00000000000000     0.00000000000000     0.00000000000000
O     2.11283868133922     0.00000000000000     0.00000000000000
O     0.00000000000000     2.11283868133922     0.00000000000000
O     0.00000000000000     0.00000000000000     2.11283868133922