CRYSTAL
# Primitive lattice vectors in Angstrom
PRIMVEC
 5.37488071205826 0.00000000000000 0.00000000000000
 -0.00000000000000 5.37488071205826 0.00000000000000
 0.00000000000000 0.00000000000000 5.37488071205826
# Cartesian coordinates in Angstrom.
PRIMCOORD
 10 1
Ce     1.34372017801456     1.34372017801456     1.34372017801456
Ce     4.03116053404370     4.03116053404370     1.34372017801456
Ce     4.03116053404370     1.34372017801456     4.03116053404370
Ce     1.34372017801456     4.03116053404370     4.03116053404370
O     2.68744035602913     0.00000000000000     0.00000000000000
O     0.00000000000000     2.68744035602913     0.00000000000000
O     0.00000000000000     0.00000000000000     2.68744035602913
O     2.68744035602913     2.68744035602913     0.00000000000000
O     2.68744035602913     0.00000000000000     2.68744035602913
O     0.00000000000000     2.68744035602913     2.68744035602913