CRYSTAL
# Primitive lattice vectors in Angstrom
PRIMVEC
 5.39665180589016 0.00000000000000 0.00000000000000
 -0.00000000000000 5.39665180589016 0.00000000000000
 0.00000000000000 0.00000000000000 5.39665180589016
# Cartesian coordinates in Angstrom.
PRIMCOORD
 14 1
Ce     0.00000000000000     0.00000000000000     0.00000000000000
Ce     2.69832590294508     2.69832590294508     0.00000000000000
Ce     2.69832590294508     0.00000000000000     2.69832590294508
Ce     0.00000000000000     2.69832590294508     2.69832590294508
O     2.69832590294508     0.00000000000000     0.00000000000000
O     0.00000000000000     2.69832590294508     0.00000000000000
O     0.00000000000000     0.00000000000000     2.69832590294508
O     2.69832590294508     2.69832590294508     2.69832590294508
O     4.04748885441762     4.04748885441762     1.34916295147254
O     4.04748885441762     1.34916295147254     4.04748885441762
O     1.34916295147254     4.04748885441762     4.04748885441762
O     4.04748885441762     1.34916295147254     1.34916295147254
O     1.34916295147254     4.04748885441762     1.34916295147254
O     1.34916295147254     1.34916295147254     4.04748885441762