CRYSTAL
# Primitive lattice vectors in Angstrom
PRIMVEC
 3.98842628020399 0.00000000000000 0.00000000000000
 -0.00000000000000 3.98842628020399 0.00000000000000
 0.00000000000000 0.00000000000000 3.98842628020399
# Cartesian coordinates in Angstrom.
PRIMCOORD
 4 1
Cf     0.00000000000000     0.00000000000000     0.00000000000000
O     1.99421314010199     0.00000000000000     0.00000000000000
O     0.00000000000000     1.99421314010199     0.00000000000000
O     0.00000000000000     0.00000000000000     1.99421314010199