CRYSTAL
# Primitive lattice vectors in Angstrom
PRIMVEC
 5.19056057024218 0.00000000000000 0.00000000000000
 -0.00000000000000 5.19056057024218 0.00000000000000
 0.00000000000000 0.00000000000000 5.19056057024218
# Cartesian coordinates in Angstrom.
PRIMCOORD
 14 1
Cf     0.00000000000000     0.00000000000000     0.00000000000000
Cf     2.59528028512109     2.59528028512109     0.00000000000000
Cf     2.59528028512109     0.00000000000000     2.59528028512109
Cf     0.00000000000000     2.59528028512109     2.59528028512109
O     2.59528028512109     0.00000000000000     0.00000000000000
O     0.00000000000000     2.59528028512109     0.00000000000000
O     0.00000000000000     0.00000000000000     2.59528028512109
O     2.59528028512109     2.59528028512109     2.59528028512109
O     3.89292042768163     3.89292042768163     1.29764014256054
O     3.89292042768163     1.29764014256054     3.89292042768163
O     1.29764014256054     3.89292042768163     3.89292042768163
O     3.89292042768163     1.29764014256054     1.29764014256054
O     1.29764014256054     3.89292042768163     1.29764014256054
O     1.29764014256054     1.29764014256054     3.89292042768163