CRYSTAL
# Primitive lattice vectors in Angstrom
PRIMVEC
 5.13508672871817 0.00000000000000 0.00000000000000
 -0.00000000000000 5.13508672871817 0.00000000000000
 0.00000000000000 0.00000000000000 5.13508672871817
# Cartesian coordinates in Angstrom.
PRIMCOORD
 10 1
Cf     1.28377168217954     1.28377168217954     1.28377168217954
Cf     3.85131504653863     3.85131504653863     1.28377168217954
Cf     3.85131504653863     1.28377168217954     3.85131504653863
Cf     1.28377168217954     3.85131504653863     3.85131504653863
O     2.56754336435909     0.00000000000000     0.00000000000000
O     0.00000000000000     2.56754336435909     0.00000000000000
O     0.00000000000000     0.00000000000000     2.56754336435909
O     2.56754336435909     2.56754336435909     0.00000000000000
O     2.56754336435909     0.00000000000000     2.56754336435909
O     0.00000000000000     2.56754336435909     2.56754336435909