CRYSTAL
# Primitive lattice vectors in Angstrom
PRIMVEC
 3.61893423165815 0.00000000000000 0.00000000000000
 -0.00000000000000 3.61893423165815 0.00000000000000
 0.00000000000000 0.00000000000000 3.61893423165815
# Cartesian coordinates in Angstrom.
PRIMCOORD
 4 1
Cl     0.00000000000000     0.00000000000000     0.00000000000000
O     1.80946711582907     0.00000000000000     0.00000000000000
O     0.00000000000000     1.80946711582907     0.00000000000000
O     0.00000000000000     0.00000000000000     1.80946711582907