CRYSTAL
# Primitive lattice vectors in Angstrom
PRIMVEC
 4.97426963596848 0.00000000000000 0.00000000000000
 -0.00000000000000 4.97426963596848 0.00000000000000
 0.00000000000000 0.00000000000000 4.97426963596848
# Cartesian coordinates in Angstrom.
PRIMCOORD
 10 1
Cl     1.24356740899212     1.24356740899212     1.24356740899212
Cl     3.73070222697636     3.73070222697636     1.24356740899212
Cl     3.73070222697636     1.24356740899212     3.73070222697636
Cl     1.24356740899212     3.73070222697636     3.73070222697636
O     2.48713481798424     0.00000000000000     0.00000000000000
O     0.00000000000000     2.48713481798424     0.00000000000000
O     0.00000000000000     0.00000000000000     2.48713481798424
O     2.48713481798424     2.48713481798424     0.00000000000000
O     2.48713481798424     0.00000000000000     2.48713481798424
O     0.00000000000000     2.48713481798424     2.48713481798424