CRYSTAL
# Primitive lattice vectors in Angstrom
PRIMVEC
 5.12895417654456 0.00000000000000 0.00000000000000
 -0.00000000000000 5.12895417654456 0.00000000000000
 0.00000000000000 0.00000000000000 5.12895417654456
# Cartesian coordinates in Angstrom.
PRIMCOORD
 14 1
Cl     0.00000000000000     0.00000000000000     0.00000000000000
Cl     2.56447708827228     2.56447708827228     0.00000000000000
Cl     2.56447708827228     0.00000000000000     2.56447708827228
Cl     0.00000000000000     2.56447708827228     2.56447708827228
O     2.56447708827228     0.00000000000000     0.00000000000000
O     0.00000000000000     2.56447708827228     0.00000000000000
O     0.00000000000000     0.00000000000000     2.56447708827228
O     2.56447708827228     2.56447708827228     2.56447708827228
O     3.84671563240842     3.84671563240842     1.28223854413614
O     3.84671563240842     1.28223854413614     3.84671563240842
O     1.28223854413614     3.84671563240842     3.84671563240842
O     3.84671563240842     1.28223854413614     1.28223854413614
O     1.28223854413614     3.84671563240842     1.28223854413614
O     1.28223854413614     1.28223854413614     3.84671563240842