CRYSTAL
# Primitive lattice vectors in Angstrom
PRIMVEC
 5.13037304351403 0.00000000000000 0.00000000000000
 -0.00000000000000 5.13037304351403 0.00000000000000
 0.00000000000000 0.00000000000000 5.13037304351403
# Cartesian coordinates in Angstrom.
PRIMCOORD
 10 1
Cm     1.28259326087850     1.28259326087850     1.28259326087850
Cm     3.84777978263552     3.84777978263552     1.28259326087850
Cm     3.84777978263552     1.28259326087850     3.84777978263552
Cm     1.28259326087850     3.84777978263552     3.84777978263552
O     2.56518652175702     0.00000000000000     0.00000000000000
O     0.00000000000000     2.56518652175702     0.00000000000000
O     0.00000000000000     0.00000000000000     2.56518652175702
O     2.56518652175702     2.56518652175702     0.00000000000000
O     2.56518652175702     0.00000000000000     2.56518652175702
O     0.00000000000000     2.56518652175702     2.56518652175702