CRYSTAL
# Primitive lattice vectors in Angstrom
PRIMVEC
 5.17500659656479 0.00000000000000 0.00000000000000
 -0.00000000000000 5.17500659656479 0.00000000000000
 0.00000000000000 0.00000000000000 5.17500659656479
# Cartesian coordinates in Angstrom.
PRIMCOORD
 14 1
Cm     0.00000000000000     0.00000000000000     0.00000000000000
Cm     2.58750329828239     2.58750329828239     0.00000000000000
Cm     2.58750329828239     0.00000000000000     2.58750329828239
Cm     0.00000000000000     2.58750329828239     2.58750329828239
O     2.58750329828239     0.00000000000000     0.00000000000000
O     0.00000000000000     2.58750329828239     0.00000000000000
O     0.00000000000000     0.00000000000000     2.58750329828239
O     2.58750329828239     2.58750329828239     2.58750329828239
O     3.88125494742359     3.88125494742359     1.29375164914120
O     3.88125494742359     1.29375164914120     3.88125494742359
O     1.29375164914120     3.88125494742359     3.88125494742359
O     3.88125494742359     1.29375164914120     1.29375164914120
O     1.29375164914120     3.88125494742359     1.29375164914120
O     1.29375164914120     1.29375164914120     3.88125494742359