CRYSTAL
# Primitive lattice vectors in Angstrom
PRIMVEC
 3.99284001590305 0.00000000000000 0.00000000000000
 -0.00000000000000 3.99284001590305 0.00000000000000
 0.00000000000000 0.00000000000000 3.99284001590305
# Cartesian coordinates in Angstrom.
PRIMCOORD
 4 1
Cm     0.00000000000000     0.00000000000000     0.00000000000000
O     1.99642000795152     0.00000000000000     0.00000000000000
O     0.00000000000000     1.99642000795152     0.00000000000000
O     0.00000000000000     0.00000000000000     1.99642000795152