CRYSTAL
# Primitive lattice vectors in Angstrom
PRIMVEC
 3.53332365103917 0.00000000000000 0.00000000000000
 -0.00000000000000 3.53332365103917 0.00000000000000
 0.00000000000000 0.00000000000000 3.53332365103917
# Cartesian coordinates in Angstrom.
PRIMCOORD
 4 1
Co     0.00000000000000     0.00000000000000     0.00000000000000
O     1.76666182551958     0.00000000000000     0.00000000000000
O     0.00000000000000     1.76666182551958     0.00000000000000
O     0.00000000000000     0.00000000000000     1.76666182551958