CRYSTAL
# Primitive lattice vectors in Angstrom
PRIMVEC
 4.77454184207251 0.00000000000000 0.00000000000000
 -0.00000000000000 4.77454184207251 0.00000000000000
 0.00000000000000 0.00000000000000 4.77454184207251
# Cartesian coordinates in Angstrom.
PRIMCOORD
 14 1
Co     0.00000000000000     0.00000000000000     0.00000000000000
Co     2.38727092103626     2.38727092103626     0.00000000000000
Co     2.38727092103626     0.00000000000000     2.38727092103626
Co     0.00000000000000     2.38727092103626     2.38727092103626
O     2.38727092103626     0.00000000000000     0.00000000000000
O     0.00000000000000     2.38727092103626     0.00000000000000
O     0.00000000000000     0.00000000000000     2.38727092103626
O     2.38727092103626     2.38727092103626     2.38727092103626
O     3.58090638155439     3.58090638155439     1.19363546051813
O     3.58090638155439     1.19363546051813     3.58090638155439
O     1.19363546051813     3.58090638155439     3.58090638155439
O     3.58090638155439     1.19363546051813     1.19363546051813
O     1.19363546051813     3.58090638155439     1.19363546051813
O     1.19363546051813     1.19363546051813     3.58090638155439