CRYSTAL
# Primitive lattice vectors in Angstrom
PRIMVEC
 4.38709412738378 0.00000000000000 0.00000000000000
 -0.00000000000000 4.38709412738378 0.00000000000000
 0.00000000000000 0.00000000000000 4.38709412738378
# Cartesian coordinates in Angstrom.
PRIMCOORD
 10 1
Co     1.09677353184594     1.09677353184594     1.09677353184594
Co     3.29032059553784     3.29032059553784     1.09677353184594
Co     3.29032059553784     1.09677353184594     3.29032059553784
Co     1.09677353184594     3.29032059553784     3.29032059553784
O     2.19354706369189     0.00000000000000     0.00000000000000
O     0.00000000000000     2.19354706369189     0.00000000000000
O     0.00000000000000     0.00000000000000     2.19354706369189
O     2.19354706369189     2.19354706369189     0.00000000000000
O     2.19354706369189     0.00000000000000     2.19354706369189
O     0.00000000000000     2.19354706369189     2.19354706369189