CRYSTAL
# Primitive lattice vectors in Angstrom
PRIMVEC
 4.49255462100703 0.00000000000000 0.00000000000000
 -0.00000000000000 4.49255462100703 0.00000000000000
 0.00000000000000 0.00000000000000 4.49255462100703
# Cartesian coordinates in Angstrom.
PRIMCOORD
 10 1
Cr     1.12313865525175     1.12313865525175     1.12313865525175
Cr     3.36941596575527     3.36941596575527     1.12313865525175
Cr     3.36941596575527     1.12313865525175     3.36941596575527
Cr     1.12313865525175     3.36941596575527     3.36941596575527
O     2.24627731050352     0.00000000000000     0.00000000000000
O     0.00000000000000     2.24627731050352     0.00000000000000
O     0.00000000000000     0.00000000000000     2.24627731050352
O     2.24627731050352     2.24627731050352     0.00000000000000
O     2.24627731050352     0.00000000000000     2.24627731050352
O     0.00000000000000     2.24627731050352     2.24627731050352