CRYSTAL
# Primitive lattice vectors in Angstrom
PRIMVEC
 3.54284107006506 0.00000000000000 0.00000000000000
 -0.00000000000000 3.54284107006506 0.00000000000000
 0.00000000000000 0.00000000000000 3.54284107006506
# Cartesian coordinates in Angstrom.
PRIMCOORD
 4 1
Cr     0.00000000000000     0.00000000000000     0.00000000000000
O     1.77142053503253     0.00000000000000     0.00000000000000
O     0.00000000000000     1.77142053503253     0.00000000000000
O     0.00000000000000     0.00000000000000     1.77142053503253