CRYSTAL
# Primitive lattice vectors in Angstrom
PRIMVEC
 4.76751532198076 0.00000000000000 0.00000000000000
 -0.00000000000000 4.76751532198076 0.00000000000000
 0.00000000000000 0.00000000000000 4.76751532198076
# Cartesian coordinates in Angstrom.
PRIMCOORD
 14 1
Cr     0.00000000000000     0.00000000000000     0.00000000000000
Cr     2.38375766099038     2.38375766099038     0.00000000000000
Cr     2.38375766099038     0.00000000000000     2.38375766099038
Cr     0.00000000000000     2.38375766099038     2.38375766099038
O     2.38375766099038     0.00000000000000     0.00000000000000
O     0.00000000000000     2.38375766099038     0.00000000000000
O     0.00000000000000     0.00000000000000     2.38375766099038
O     2.38375766099038     2.38375766099038     2.38375766099038
O     3.57563649148557     3.57563649148557     1.19187883049519
O     3.57563649148557     1.19187883049519     3.57563649148557
O     1.19187883049519     3.57563649148557     3.57563649148557
O     3.57563649148557     1.19187883049519     1.19187883049519
O     1.19187883049519     3.57563649148557     1.19187883049519
O     1.19187883049519     1.19187883049519     3.57563649148557