CRYSTAL
# Primitive lattice vectors in Angstrom
PRIMVEC
 5.85412821660630 0.00000000000000 0.00000000000000
 -0.00000000000000 5.85412821660630 0.00000000000000
 0.00000000000000 0.00000000000000 5.85412821660630
# Cartesian coordinates in Angstrom.
PRIMCOORD
 14 1
Cs     0.00000000000000     0.00000000000000     0.00000000000000
Cs     2.92706410830315     2.92706410830315     0.00000000000000
Cs     2.92706410830315     0.00000000000000     2.92706410830315
Cs     0.00000000000000     2.92706410830315     2.92706410830315
O     2.92706410830315     0.00000000000000     0.00000000000000
O     0.00000000000000     2.92706410830315     0.00000000000000
O     0.00000000000000     0.00000000000000     2.92706410830315
O     2.92706410830315     2.92706410830315     2.92706410830315
O     4.39059616245473     4.39059616245473     1.46353205415158
O     4.39059616245473     1.46353205415158     4.39059616245473
O     1.46353205415158     4.39059616245473     4.39059616245473
O     4.39059616245473     1.46353205415158     1.46353205415158
O     1.46353205415158     4.39059616245473     1.46353205415158
O     1.46353205415158     1.46353205415158     4.39059616245473