CRYSTAL
# Primitive lattice vectors in Angstrom
PRIMVEC
 4.10695501633213 0.00000000000000 0.00000000000000
 -0.00000000000000 4.10695501633213 0.00000000000000
 0.00000000000000 0.00000000000000 4.10695501633213
# Cartesian coordinates in Angstrom.
PRIMCOORD
 4 1
Cs     0.00000000000000     0.00000000000000     0.00000000000000
O     2.05347750816606     0.00000000000000     0.00000000000000
O     0.00000000000000     2.05347750816606     0.00000000000000
O     0.00000000000000     0.00000000000000     2.05347750816606