CRYSTAL
# Primitive lattice vectors in Angstrom
PRIMVEC
 6.08395352639250 0.00000000000000 0.00000000000000
 -0.00000000000000 6.08395352639250 0.00000000000000
 0.00000000000000 0.00000000000000 6.08395352639250
# Cartesian coordinates in Angstrom.
PRIMCOORD
 10 1
Cs     1.52098838159812     1.52098838159812     1.52098838159812
Cs     4.56296514479438     4.56296514479438     1.52098838159812
Cs     4.56296514479438     1.52098838159812     4.56296514479438
Cs     1.52098838159812     4.56296514479438     4.56296514479438
O     3.04197676319625     0.00000000000000     0.00000000000000
O     0.00000000000000     3.04197676319625     0.00000000000000
O     0.00000000000000     0.00000000000000     3.04197676319625
O     3.04197676319625     3.04197676319625     0.00000000000000
O     3.04197676319625     0.00000000000000     3.04197676319625
O     0.00000000000000     3.04197676319625     3.04197676319625