CRYSTAL
# Primitive lattice vectors in Angstrom
PRIMVEC
 4.89570838594767 0.00000000000000 0.00000000000000
 -0.00000000000000 4.89570838594767 0.00000000000000
 0.00000000000000 0.00000000000000 4.89570838594767
# Cartesian coordinates in Angstrom.
PRIMCOORD
 14 1
Cu     0.00000000000000     0.00000000000000     0.00000000000000
Cu     2.44785419297383     2.44785419297383     0.00000000000000
Cu     2.44785419297383     0.00000000000000     2.44785419297383
Cu     0.00000000000000     2.44785419297383     2.44785419297383
O     2.44785419297383     0.00000000000000     0.00000000000000
O     0.00000000000000     2.44785419297383     0.00000000000000
O     0.00000000000000     0.00000000000000     2.44785419297383
O     2.44785419297383     2.44785419297383     2.44785419297383
O     3.67178128946075     3.67178128946075     1.22392709648692
O     3.67178128946075     1.22392709648692     3.67178128946075
O     1.22392709648692     3.67178128946075     3.67178128946075
O     3.67178128946075     1.22392709648692     1.22392709648692
O     1.22392709648692     3.67178128946075     1.22392709648692
O     1.22392709648692     1.22392709648692     3.67178128946075