CRYSTAL
# Primitive lattice vectors in Angstrom
PRIMVEC
 3.63203107920004 0.00000000000000 0.00000000000000
 -0.00000000000000 3.63203107920004 0.00000000000000
 0.00000000000000 0.00000000000000 3.63203107920004
# Cartesian coordinates in Angstrom.
PRIMCOORD
 4 1
Cu     0.00000000000000     0.00000000000000     0.00000000000000
O     1.81601553960002     0.00000000000000     0.00000000000000
O     0.00000000000000     1.81601553960002     0.00000000000000
O     0.00000000000000     0.00000000000000     1.81601553960002