CRYSTAL
# Primitive lattice vectors in Angstrom
PRIMVEC
 4.57626866622570 0.00000000000000 0.00000000000000
 -0.00000000000000 4.57626866622570 0.00000000000000
 0.00000000000000 0.00000000000000 4.57626866622570
# Cartesian coordinates in Angstrom.
PRIMCOORD
 10 1
Cu     1.14406716655642     1.14406716655642     1.14406716655642
Cu     3.43220149966927     3.43220149966927     1.14406716655642
Cu     3.43220149966927     1.14406716655642     3.43220149966927
Cu     1.14406716655642     3.43220149966927     3.43220149966927
O     2.28813433311285     0.00000000000000     0.00000000000000
O     0.00000000000000     2.28813433311285     0.00000000000000
O     0.00000000000000     0.00000000000000     2.28813433311285
O     2.28813433311285     2.28813433311285     0.00000000000000
O     2.28813433311285     0.00000000000000     2.28813433311285
O     0.00000000000000     2.28813433311285     2.28813433311285