CRYSTAL
# Primitive lattice vectors in Angstrom
PRIMVEC
 5.24211981072690 0.00000000000000 0.00000000000000
 -0.00000000000000 5.24211981072690 0.00000000000000
 0.00000000000000 0.00000000000000 5.24211981072690
# Cartesian coordinates in Angstrom.
PRIMCOORD
 14 1
Dy     0.00000000000000     0.00000000000000     0.00000000000000
Dy     2.62105990536345     2.62105990536345     0.00000000000000
Dy     2.62105990536345     0.00000000000000     2.62105990536345
Dy     0.00000000000000     2.62105990536345     2.62105990536345
O     2.62105990536345     0.00000000000000     0.00000000000000
O     0.00000000000000     2.62105990536345     0.00000000000000
O     0.00000000000000     0.00000000000000     2.62105990536345
O     2.62105990536345     2.62105990536345     2.62105990536345
O     3.93158985804517     3.93158985804517     1.31052995268172
O     3.93158985804517     1.31052995268172     3.93158985804517
O     1.31052995268172     3.93158985804517     3.93158985804517
O     3.93158985804517     1.31052995268172     1.31052995268172
O     1.31052995268172     3.93158985804517     1.31052995268172
O     1.31052995268172     1.31052995268172     3.93158985804517