CRYSTAL
# Primitive lattice vectors in Angstrom
PRIMVEC
 5.17647417268031 0.00000000000000 0.00000000000000
 -0.00000000000000 5.17647417268031 0.00000000000000
 0.00000000000000 0.00000000000000 5.17647417268031
# Cartesian coordinates in Angstrom.
PRIMCOORD
 10 1
Dy     1.29411854317007     1.29411854317007     1.29411854317007
Dy     3.88235562951023     3.88235562951023     1.29411854317007
Dy     3.88235562951023     1.29411854317007     3.88235562951023
Dy     1.29411854317007     3.88235562951023     3.88235562951023
O     2.58823708634016     0.00000000000000     0.00000000000000
O     0.00000000000000     2.58823708634016     0.00000000000000
O     0.00000000000000     0.00000000000000     2.58823708634016
O     2.58823708634016     2.58823708634016     0.00000000000000
O     2.58823708634016     0.00000000000000     2.58823708634016
O     0.00000000000000     2.58823708634016     2.58823708634016