CRYSTAL
# Primitive lattice vectors in Angstrom
PRIMVEC
 4.05206415678095 0.00000000000000 0.00000000000000
 -0.00000000000000 4.05206415678095 0.00000000000000
 0.00000000000000 0.00000000000000 4.05206415678095
# Cartesian coordinates in Angstrom.
PRIMCOORD
 4 1
Dy     0.00000000000000     0.00000000000000     0.00000000000000
O     2.02603207839047     0.00000000000000     0.00000000000000
O     0.00000000000000     2.02603207839047     0.00000000000000
O     0.00000000000000     0.00000000000000     2.02603207839047