CRYSTAL
# Primitive lattice vectors in Angstrom
PRIMVEC
 5.24196579821862 0.00000000000000 0.00000000000000
 -0.00000000000000 5.24196579821862 0.00000000000000
 0.00000000000000 0.00000000000000 5.24196579821862
# Cartesian coordinates in Angstrom.
PRIMCOORD
 14 1
Er     0.00000000000000     0.00000000000000     0.00000000000000
Er     2.62098289910931     2.62098289910931     0.00000000000000
Er     2.62098289910931     0.00000000000000     2.62098289910931
Er     0.00000000000000     2.62098289910931     2.62098289910931
O     2.62098289910931     0.00000000000000     0.00000000000000
O     0.00000000000000     2.62098289910931     0.00000000000000
O     0.00000000000000     0.00000000000000     2.62098289910931
O     2.62098289910931     2.62098289910931     2.62098289910931
O     3.93147434866397     3.93147434866397     1.31049144955466
O     3.93147434866397     1.31049144955466     3.93147434866397
O     1.31049144955466     3.93147434866397     3.93147434866397
O     3.93147434866397     1.31049144955466     1.31049144955466
O     1.31049144955466     3.93147434866397     1.31049144955466
O     1.31049144955466     1.31049144955466     3.93147434866397