CRYSTAL
# Primitive lattice vectors in Angstrom
PRIMVEC
 4.07035515285358 0.00000000000000 0.00000000000000
 -0.00000000000000 4.07035515285358 0.00000000000000
 0.00000000000000 0.00000000000000 4.07035515285358
# Cartesian coordinates in Angstrom.
PRIMCOORD
 4 1
Er     0.00000000000000     0.00000000000000     0.00000000000000
O     2.03517757642678     0.00000000000000     0.00000000000000
O     0.00000000000000     2.03517757642678     0.00000000000000
O     0.00000000000000     0.00000000000000     2.03517757642678