CRYSTAL
# Primitive lattice vectors in Angstrom
PRIMVEC
 5.15812498582453 0.00000000000000 0.00000000000000
 -0.00000000000000 5.15812498582453 0.00000000000000
 0.00000000000000 0.00000000000000 5.15812498582453
# Cartesian coordinates in Angstrom.
PRIMCOORD
 10 1
Er     1.28953124645613     1.28953124645613     1.28953124645613
Er     3.86859373936840     3.86859373936840     1.28953124645613
Er     3.86859373936840     1.28953124645613     3.86859373936840
Er     1.28953124645613     3.86859373936840     3.86859373936840
O     2.57906249291227     0.00000000000000     0.00000000000000
O     0.00000000000000     2.57906249291227     0.00000000000000
O     0.00000000000000     0.00000000000000     2.57906249291227
O     2.57906249291227     2.57906249291227     0.00000000000000
O     2.57906249291227     0.00000000000000     2.57906249291227
O     0.00000000000000     2.57906249291227     2.57906249291227