CRYSTAL
# Primitive lattice vectors in Angstrom
PRIMVEC
 4.00241092597183 0.00000000000000 0.00000000000000
 -0.00000000000000 4.00241092597183 0.00000000000000
 0.00000000000000 0.00000000000000 4.00241092597183
# Cartesian coordinates in Angstrom.
PRIMCOORD
 4 1
Es     0.00000000000000     0.00000000000000     0.00000000000000
O     2.00120546298591     0.00000000000000     0.00000000000000
O     0.00000000000000     2.00120546298591     0.00000000000000
O     0.00000000000000     0.00000000000000     2.00120546298591