CRYSTAL
# Primitive lattice vectors in Angstrom
PRIMVEC
 5.20993504043672 0.00000000000000 0.00000000000000
 -0.00000000000000 5.20993504043672 0.00000000000000
 0.00000000000000 0.00000000000000 5.20993504043672
# Cartesian coordinates in Angstrom.
PRIMCOORD
 14 1
Es     0.00000000000000     0.00000000000000     0.00000000000000
Es     2.60496752021836     2.60496752021836     0.00000000000000
Es     2.60496752021836     0.00000000000000     2.60496752021836
Es     0.00000000000000     2.60496752021836     2.60496752021836
O     2.60496752021836     0.00000000000000     0.00000000000000
O     0.00000000000000     2.60496752021836     0.00000000000000
O     0.00000000000000     0.00000000000000     2.60496752021836
O     2.60496752021836     2.60496752021836     2.60496752021836
O     3.90745128032754     3.90745128032754     1.30248376010918
O     3.90745128032754     1.30248376010918     3.90745128032754
O     1.30248376010918     3.90745128032754     3.90745128032754
O     3.90745128032754     1.30248376010918     1.30248376010918
O     1.30248376010918     3.90745128032754     1.30248376010918
O     1.30248376010918     1.30248376010918     3.90745128032754