CRYSTAL
# Primitive lattice vectors in Angstrom
PRIMVEC
 5.14928493919093 0.00000000000000 0.00000000000000
 -0.00000000000000 5.14928493919093 0.00000000000000
 0.00000000000000 0.00000000000000 5.14928493919093
# Cartesian coordinates in Angstrom.
PRIMCOORD
 10 1
Es     1.28732123479773     1.28732123479773     1.28732123479773
Es     3.86196370439320     3.86196370439320     1.28732123479773
Es     3.86196370439320     1.28732123479773     3.86196370439320
Es     1.28732123479773     3.86196370439320     3.86196370439320
O     2.57464246959547     0.00000000000000     0.00000000000000
O     0.00000000000000     2.57464246959547     0.00000000000000
O     0.00000000000000     0.00000000000000     2.57464246959547
O     2.57464246959547     2.57464246959547     0.00000000000000
O     2.57464246959547     0.00000000000000     2.57464246959547
O     0.00000000000000     2.57464246959547     2.57464246959547