CRYSTAL
# Primitive lattice vectors in Angstrom
PRIMVEC
 5.25752596187887 0.00000000000000 0.00000000000000
 -0.00000000000000 5.25752596187887 0.00000000000000
 0.00000000000000 0.00000000000000 5.25752596187887
# Cartesian coordinates in Angstrom.
PRIMCOORD
 14 1
Eu     0.00000000000000     0.00000000000000     0.00000000000000
Eu     2.62876298093944     2.62876298093944     0.00000000000000
Eu     2.62876298093944     0.00000000000000     2.62876298093944
Eu     0.00000000000000     2.62876298093944     2.62876298093944
O     2.62876298093944     0.00000000000000     0.00000000000000
O     0.00000000000000     2.62876298093944     0.00000000000000
O     0.00000000000000     0.00000000000000     2.62876298093944
O     2.62876298093944     2.62876298093944     2.62876298093944
O     3.94314447140916     3.94314447140916     1.31438149046972
O     3.94314447140916     1.31438149046972     3.94314447140916
O     1.31438149046972     3.94314447140916     3.94314447140916
O     3.94314447140916     1.31438149046972     1.31438149046972
O     1.31438149046972     3.94314447140916     1.31438149046972
O     1.31438149046972     1.31438149046972     3.94314447140916