CRYSTAL
# Primitive lattice vectors in Angstrom
PRIMVEC
 5.22132792383950 0.00000000000000 0.00000000000000
 -0.00000000000000 5.22132792383950 0.00000000000000
 0.00000000000000 0.00000000000000 5.22132792383950
# Cartesian coordinates in Angstrom.
PRIMCOORD
 10 1
Eu     1.30533198095987     1.30533198095987     1.30533198095987
Eu     3.91599594287963     3.91599594287963     1.30533198095987
Eu     3.91599594287963     1.30533198095987     3.91599594287963
Eu     1.30533198095987     3.91599594287963     3.91599594287963
O     2.61066396191976     0.00000000000000     0.00000000000000
O     0.00000000000000     2.61066396191976     0.00000000000000
O     0.00000000000000     0.00000000000000     2.61066396191976
O     2.61066396191976     2.61066396191976     0.00000000000000
O     2.61066396191976     0.00000000000000     2.61066396191976
O     0.00000000000000     2.61066396191976     2.61066396191976