CRYSTAL
# Primitive lattice vectors in Angstrom
PRIMVEC
 4.04765418777263 0.00000000000000 0.00000000000000
 -0.00000000000000 4.04765418777263 0.00000000000000
 0.00000000000000 0.00000000000000 4.04765418777263
# Cartesian coordinates in Angstrom.
PRIMCOORD
 4 1
Eu     0.00000000000000     0.00000000000000     0.00000000000000
O     2.02382709388631     0.00000000000000     0.00000000000000
O     0.00000000000000     2.02382709388631     0.00000000000000
O     0.00000000000000     0.00000000000000     2.02382709388631