CRYSTAL
# Primitive lattice vectors in Angstrom
PRIMVEC
 4.65705945722970 0.00000000000000 0.00000000000000
 -0.00000000000000 4.65705945722970 0.00000000000000
 0.00000000000000 0.00000000000000 4.65705945722970
# Cartesian coordinates in Angstrom.
PRIMCOORD
 10 1
O     2.32852972861485     0.00000000000000     0.00000000000000
O     0.00000000000000     2.32852972861485     0.00000000000000
O     0.00000000000000     0.00000000000000     2.32852972861485
O     2.32852972861485     2.32852972861485     0.00000000000000
O     2.32852972861485     0.00000000000000     2.32852972861485
O     0.00000000000000     2.32852972861485     2.32852972861485
F     1.16426486430742     1.16426486430742     1.16426486430742
F     3.49279459292228     3.49279459292228     1.16426486430742
F     3.49279459292228     1.16426486430742     3.49279459292228
F     1.16426486430742     3.49279459292228     3.49279459292228