CRYSTAL
# Primitive lattice vectors in Angstrom
PRIMVEC
 4.78129277887398 0.00000000000000 0.00000000000000
 -0.00000000000000 4.78129277887398 0.00000000000000
 0.00000000000000 0.00000000000000 4.78129277887398
# Cartesian coordinates in Angstrom.
PRIMCOORD
 14 1
O     2.39064638943699     0.00000000000000     0.00000000000000
O     0.00000000000000     2.39064638943699     0.00000000000000
O     0.00000000000000     0.00000000000000     2.39064638943699
O     2.39064638943699     2.39064638943699     2.39064638943699
O     3.58596958415549     3.58596958415549     1.19532319471850
O     3.58596958415549     1.19532319471850     3.58596958415549
O     1.19532319471850     3.58596958415549     3.58596958415549
O     3.58596958415549     1.19532319471850     1.19532319471850
O     1.19532319471850     3.58596958415549     1.19532319471850
O     1.19532319471850     1.19532319471850     3.58596958415549
F     0.00000000000000     0.00000000000000     0.00000000000000
F     2.39064638943699     2.39064638943699     0.00000000000000
F     2.39064638943699     0.00000000000000     2.39064638943699
F     0.00000000000000     2.39064638943699     2.39064638943699