CRYSTAL
# Primitive lattice vectors in Angstrom
PRIMVEC
 3.62367040328028 0.00000000000000 0.00000000000000
 -0.00000000000000 3.62367040328028 0.00000000000000
 0.00000000000000 0.00000000000000 3.62367040328028
# Cartesian coordinates in Angstrom.
PRIMCOORD
 4 1
O     1.81183520164014     0.00000000000000     0.00000000000000
O     0.00000000000000     1.81183520164014     0.00000000000000
O     0.00000000000000     0.00000000000000     1.81183520164014
F     0.00000000000000     0.00000000000000     0.00000000000000