CRYSTAL
# Primitive lattice vectors in Angstrom
PRIMVEC
 3.50771786514792 0.00000000000000 0.00000000000000
 -0.00000000000000 3.50771786514792 0.00000000000000
 0.00000000000000 0.00000000000000 3.50771786514792
# Cartesian coordinates in Angstrom.
PRIMCOORD
 4 1
Fe     0.00000000000000     0.00000000000000     0.00000000000000
O     1.75385893257396     0.00000000000000     0.00000000000000
O     0.00000000000000     1.75385893257396     0.00000000000000
O     0.00000000000000     0.00000000000000     1.75385893257396