CRYSTAL
# Primitive lattice vectors in Angstrom
PRIMVEC
 4.39366718127146 0.00000000000000 0.00000000000000
 -0.00000000000000 4.39366718127146 0.00000000000000
 0.00000000000000 0.00000000000000 4.39366718127146
# Cartesian coordinates in Angstrom.
PRIMCOORD
 10 1
Fe     1.09841679531786     1.09841679531786     1.09841679531786
Fe     3.29525038595359     3.29525038595359     1.09841679531786
Fe     3.29525038595359     1.09841679531786     3.29525038595359
Fe     1.09841679531786     3.29525038595359     3.29525038595359
O     2.19683359063573     0.00000000000000     0.00000000000000
O     0.00000000000000     2.19683359063573     0.00000000000000
O     0.00000000000000     0.00000000000000     2.19683359063573
O     2.19683359063573     2.19683359063573     0.00000000000000
O     2.19683359063573     0.00000000000000     2.19683359063573
O     0.00000000000000     2.19683359063573     2.19683359063573