CRYSTAL
# Primitive lattice vectors in Angstrom
PRIMVEC
 4.75331291948763 0.00000000000000 0.00000000000000
 -0.00000000000000 4.75331291948763 0.00000000000000
 0.00000000000000 0.00000000000000 4.75331291948763
# Cartesian coordinates in Angstrom.
PRIMCOORD
 14 1
Fe     0.00000000000000     0.00000000000000     0.00000000000000
Fe     2.37665645974382     2.37665645974382     0.00000000000000
Fe     2.37665645974382     0.00000000000000     2.37665645974382
Fe     0.00000000000000     2.37665645974382     2.37665645974382
O     2.37665645974382     0.00000000000000     0.00000000000000
O     0.00000000000000     2.37665645974382     0.00000000000000
O     0.00000000000000     0.00000000000000     2.37665645974382
O     2.37665645974382     2.37665645974382     2.37665645974382
O     3.56498468961572     3.56498468961572     1.18832822987191
O     3.56498468961572     1.18832822987191     3.56498468961572
O     1.18832822987191     3.56498468961572     3.56498468961572
O     3.56498468961572     1.18832822987191     1.18832822987191
O     1.18832822987191     3.56498468961572     1.18832822987191
O     1.18832822987191     1.18832822987191     3.56498468961572