CRYSTAL
# Primitive lattice vectors in Angstrom
PRIMVEC
 4.03182464649409 0.00000000000000 0.00000000000000
 -0.00000000000000 4.03182464649409 0.00000000000000
 0.00000000000000 0.00000000000000 4.03182464649409
# Cartesian coordinates in Angstrom.
PRIMCOORD
 4 1
Fm     0.00000000000000     0.00000000000000     0.00000000000000
O     2.01591232324704     0.00000000000000     0.00000000000000
O     0.00000000000000     2.01591232324704     0.00000000000000
O     0.00000000000000     0.00000000000000     2.01591232324704