CRYSTAL
# Primitive lattice vectors in Angstrom
PRIMVEC
 5.17632467398957 0.00000000000000 0.00000000000000
 -0.00000000000000 5.17632467398957 0.00000000000000
 0.00000000000000 0.00000000000000 5.17632467398957
# Cartesian coordinates in Angstrom.
PRIMCOORD
 10 1
Fm     1.29408116849739     1.29408116849739     1.29408116849739
Fm     3.88224350549218     3.88224350549218     1.29408116849739
Fm     3.88224350549218     1.29408116849739     3.88224350549218
Fm     1.29408116849739     3.88224350549218     3.88224350549218
O     2.58816233699479     0.00000000000000     0.00000000000000
O     0.00000000000000     2.58816233699479     0.00000000000000
O     0.00000000000000     0.00000000000000     2.58816233699479
O     2.58816233699479     2.58816233699479     0.00000000000000
O     2.58816233699479     0.00000000000000     2.58816233699479
O     0.00000000000000     2.58816233699479     2.58816233699479