CRYSTAL
# Primitive lattice vectors in Angstrom
PRIMVEC
 5.23882951785352 0.00000000000000 0.00000000000000
 -0.00000000000000 5.23882951785352 0.00000000000000
 0.00000000000000 0.00000000000000 5.23882951785352
# Cartesian coordinates in Angstrom.
PRIMCOORD
 14 1
Fm     0.00000000000000     0.00000000000000     0.00000000000000
Fm     2.61941475892676     2.61941475892676     0.00000000000000
Fm     2.61941475892676     0.00000000000000     2.61941475892676
Fm     0.00000000000000     2.61941475892676     2.61941475892676
O     2.61941475892676     0.00000000000000     0.00000000000000
O     0.00000000000000     2.61941475892676     0.00000000000000
O     0.00000000000000     0.00000000000000     2.61941475892676
O     2.61941475892676     2.61941475892676     2.61941475892676
O     3.92912213839014     3.92912213839014     1.30970737946338
O     3.92912213839014     1.30970737946338     3.92912213839014
O     1.30970737946338     3.92912213839014     3.92912213839014
O     3.92912213839014     1.30970737946338     1.30970737946338
O     1.30970737946338     3.92912213839014     1.30970737946338
O     1.30970737946338     1.30970737946338     3.92912213839014