CRYSTAL
# Primitive lattice vectors in Angstrom
PRIMVEC
 5.78828044790581 0.00000000000000 0.00000000000000
 -0.00000000000000 5.78828044790581 0.00000000000000
 0.00000000000000 0.00000000000000 5.78828044790581
# Cartesian coordinates in Angstrom.
PRIMCOORD
 14 1
Fr     0.00000000000000     0.00000000000000     0.00000000000000
Fr     2.89414022395291     2.89414022395291     0.00000000000000
Fr     2.89414022395291     0.00000000000000     2.89414022395291
Fr     0.00000000000000     2.89414022395291     2.89414022395291
O     2.89414022395291     0.00000000000000     0.00000000000000
O     0.00000000000000     2.89414022395291     0.00000000000000
O     0.00000000000000     0.00000000000000     2.89414022395291
O     2.89414022395291     2.89414022395291     2.89414022395291
O     4.34121033592936     4.34121033592936     1.44707011197645
O     4.34121033592936     1.44707011197645     4.34121033592936
O     1.44707011197645     4.34121033592936     4.34121033592936
O     4.34121033592936     1.44707011197645     1.44707011197645
O     1.44707011197645     4.34121033592936     1.44707011197645
O     1.44707011197645     1.44707011197645     4.34121033592936