CRYSTAL
# Primitive lattice vectors in Angstrom
PRIMVEC
 4.19936046284897 0.00000000000000 0.00000000000000
 -0.00000000000000 4.19936046284897 0.00000000000000
 0.00000000000000 0.00000000000000 4.19936046284897
# Cartesian coordinates in Angstrom.
PRIMCOORD
 4 1
Fr     0.00000000000000     0.00000000000000     0.00000000000000
O     2.09968023142448     0.00000000000000     0.00000000000000
O     0.00000000000000     2.09968023142448     0.00000000000000
O     0.00000000000000     0.00000000000000     2.09968023142448