CRYSTAL
# Primitive lattice vectors in Angstrom
PRIMVEC
 6.06195789564103 0.00000000000000 0.00000000000000
 -0.00000000000000 6.06195789564103 0.00000000000000
 0.00000000000000 0.00000000000000 6.06195789564103
# Cartesian coordinates in Angstrom.
PRIMCOORD
 10 1
Fr     1.51548947391025     1.51548947391025     1.51548947391025
Fr     4.54646842173077     4.54646842173077     1.51548947391025
Fr     4.54646842173077     1.51548947391025     4.54646842173077
Fr     1.51548947391025     4.54646842173077     4.54646842173077
O     3.03097894782052     0.00000000000000     0.00000000000000
O     0.00000000000000     3.03097894782052     0.00000000000000
O     0.00000000000000     0.00000000000000     3.03097894782052
O     3.03097894782052     3.03097894782052     0.00000000000000
O     3.03097894782052     0.00000000000000     3.03097894782052
O     0.00000000000000     3.03097894782052     3.03097894782052