CRYSTAL
# Primitive lattice vectors in Angstrom
PRIMVEC
 3.76502913568515 0.00000000000000 0.00000000000000
 -0.00000000000000 3.76502913568515 0.00000000000000
 0.00000000000000 0.00000000000000 3.76502913568515
# Cartesian coordinates in Angstrom.
PRIMCOORD
 4 1
Ga     0.00000000000000     0.00000000000000     0.00000000000000
O     1.88251456784257     0.00000000000000     0.00000000000000
O     0.00000000000000     1.88251456784257     0.00000000000000
O     0.00000000000000     0.00000000000000     1.88251456784257