CRYSTAL
# Primitive lattice vectors in Angstrom
PRIMVEC
 5.00462753397196 0.00000000000000 0.00000000000000
 -0.00000000000000 5.00462753397196 0.00000000000000
 0.00000000000000 0.00000000000000 5.00462753397196
# Cartesian coordinates in Angstrom.
PRIMCOORD
 14 1
Ga     0.00000000000000     0.00000000000000     0.00000000000000
Ga     2.50231376698598     2.50231376698598     0.00000000000000
Ga     2.50231376698598     0.00000000000000     2.50231376698598
Ga     0.00000000000000     2.50231376698598     2.50231376698598
O     2.50231376698598     0.00000000000000     0.00000000000000
O     0.00000000000000     2.50231376698598     0.00000000000000
O     0.00000000000000     0.00000000000000     2.50231376698598
O     2.50231376698598     2.50231376698598     2.50231376698598
O     3.75347065047897     3.75347065047897     1.25115688349299
O     3.75347065047897     1.25115688349299     3.75347065047897
O     1.25115688349299     3.75347065047897     3.75347065047897
O     3.75347065047897     1.25115688349299     1.25115688349299
O     1.25115688349299     3.75347065047897     1.25115688349299
O     1.25115688349299     1.25115688349299     3.75347065047897