CRYSTAL
# Primitive lattice vectors in Angstrom
PRIMVEC
 4.69764627842804 0.00000000000000 0.00000000000000
 -0.00000000000000 4.69764627842804 0.00000000000000
 0.00000000000000 0.00000000000000 4.69764627842804
# Cartesian coordinates in Angstrom.
PRIMCOORD
 10 1
Ga     1.17441156960701     1.17441156960701     1.17441156960701
Ga     3.52323470882103     3.52323470882103     1.17441156960701
Ga     3.52323470882103     1.17441156960701     3.52323470882103
Ga     1.17441156960701     3.52323470882103     3.52323470882103
O     2.34882313921402     0.00000000000000     0.00000000000000
O     0.00000000000000     2.34882313921402     0.00000000000000
O     0.00000000000000     0.00000000000000     2.34882313921402
O     2.34882313921402     2.34882313921402     0.00000000000000
O     2.34882313921402     0.00000000000000     2.34882313921402
O     0.00000000000000     2.34882313921402     2.34882313921402