CRYSTAL
# Primitive lattice vectors in Angstrom
PRIMVEC
 4.04662417188422 0.00000000000000 0.00000000000000
 -0.00000000000000 4.04662417188422 0.00000000000000
 0.00000000000000 0.00000000000000 4.04662417188422
# Cartesian coordinates in Angstrom.
PRIMCOORD
 4 1
Gd     0.00000000000000     0.00000000000000     0.00000000000000
O     2.02331208594210     0.00000000000000     0.00000000000000
O     0.00000000000000     2.02331208594210     0.00000000000000
O     0.00000000000000     0.00000000000000     2.02331208594210