CRYSTAL
# Primitive lattice vectors in Angstrom
PRIMVEC
 5.20423205843743 0.00000000000000 0.00000000000000
 -0.00000000000000 5.20423205843743 0.00000000000000
 0.00000000000000 0.00000000000000 5.20423205843743
# Cartesian coordinates in Angstrom.
PRIMCOORD
 10 1
Gd     1.30105801460936     1.30105801460936     1.30105801460936
Gd     3.90317404382808     3.90317404382808     1.30105801460936
Gd     3.90317404382808     1.30105801460936     3.90317404382808
Gd     1.30105801460936     3.90317404382808     3.90317404382808
O     2.60211602921872     0.00000000000000     0.00000000000000
O     0.00000000000000     2.60211602921872     0.00000000000000
O     0.00000000000000     0.00000000000000     2.60211602921872
O     2.60211602921872     2.60211602921872     0.00000000000000
O     2.60211602921872     0.00000000000000     2.60211602921872
O     0.00000000000000     2.60211602921872     2.60211602921872