CRYSTAL
# Primitive lattice vectors in Angstrom
PRIMVEC
 5.25027029177266 0.00000000000000 0.00000000000000
 -0.00000000000000 5.25027029177266 0.00000000000000
 0.00000000000000 0.00000000000000 5.25027029177266
# Cartesian coordinates in Angstrom.
PRIMCOORD
 14 1
Gd     0.00000000000000     0.00000000000000     0.00000000000000
Gd     2.62513514588633     2.62513514588633     0.00000000000000
Gd     2.62513514588633     0.00000000000000     2.62513514588633
Gd     0.00000000000000     2.62513514588633     2.62513514588633
O     2.62513514588633     0.00000000000000     0.00000000000000
O     0.00000000000000     2.62513514588633     0.00000000000000
O     0.00000000000000     0.00000000000000     2.62513514588633
O     2.62513514588633     2.62513514588633     2.62513514588633
O     3.93770271882949     3.93770271882949     1.31256757294316
O     3.93770271882949     1.31256757294316     3.93770271882949
O     1.31256757294316     3.93770271882949     3.93770271882949
O     3.93770271882949     1.31256757294316     1.31256757294316
O     1.31256757294316     3.93770271882949     1.31256757294316
O     1.31256757294316     1.31256757294316     3.93770271882949