CRYSTAL
# Primitive lattice vectors in Angstrom
PRIMVEC
 3.64026715812030 0.00000000000000 0.00000000000000
 -0.00000000000000 3.64026715812030 0.00000000000000
 0.00000000000000 0.00000000000000 3.64026715812030
# Cartesian coordinates in Angstrom.
PRIMCOORD
 4 1
Ge     0.00000000000000     0.00000000000000     0.00000000000000
O     1.82013357906015     0.00000000000000     0.00000000000000
O     0.00000000000000     1.82013357906015     0.00000000000000
O     0.00000000000000     0.00000000000000     1.82013357906015