CRYSTAL
# Primitive lattice vectors in Angstrom
PRIMVEC
 4.83250034349310 0.00000000000000 0.00000000000000
 -0.00000000000000 4.83250034349310 0.00000000000000
 0.00000000000000 0.00000000000000 4.83250034349310
# Cartesian coordinates in Angstrom.
PRIMCOORD
 10 1
Ge     1.20812508587327     1.20812508587327     1.20812508587327
Ge     3.62437525761983     3.62437525761983     1.20812508587327
Ge     3.62437525761983     1.20812508587327     3.62437525761983
Ge     1.20812508587327     3.62437525761983     3.62437525761983
O     2.41625017174655     0.00000000000000     0.00000000000000
O     0.00000000000000     2.41625017174655     0.00000000000000
O     0.00000000000000     0.00000000000000     2.41625017174655
O     2.41625017174655     2.41625017174655     0.00000000000000
O     2.41625017174655     0.00000000000000     2.41625017174655
O     0.00000000000000     2.41625017174655     2.41625017174655