CRYSTAL
# Primitive lattice vectors in Angstrom
PRIMVEC
 5.03883338275030 0.00000000000000 0.00000000000000
 -0.00000000000000 5.03883338275030 0.00000000000000
 0.00000000000000 0.00000000000000 5.03883338275030
# Cartesian coordinates in Angstrom.
PRIMCOORD
 14 1
Ge     0.00000000000000     0.00000000000000     0.00000000000000
Ge     2.51941669137515     2.51941669137515     0.00000000000000
Ge     2.51941669137515     0.00000000000000     2.51941669137515
Ge     0.00000000000000     2.51941669137515     2.51941669137515
O     2.51941669137515     0.00000000000000     0.00000000000000
O     0.00000000000000     2.51941669137515     0.00000000000000
O     0.00000000000000     0.00000000000000     2.51941669137515
O     2.51941669137515     2.51941669137515     2.51941669137515
O     3.77912503706272     3.77912503706272     1.25970834568757
O     3.77912503706272     1.25970834568757     3.77912503706272
O     1.25970834568757     3.77912503706272     3.77912503706272
O     3.77912503706272     1.25970834568757     1.25970834568757
O     1.25970834568757     3.77912503706272     1.25970834568757
O     1.25970834568757     1.25970834568757     3.77912503706272