CRYSTAL
# Primitive lattice vectors in Angstrom
PRIMVEC
 4.57056697566187 0.00000000000000 0.00000000000000
 -0.00000000000000 4.57056697566187 0.00000000000000
 0.00000000000000 0.00000000000000 4.57056697566187
# Cartesian coordinates in Angstrom.
PRIMCOORD
 14 1
H     0.00000000000000     0.00000000000000     0.00000000000000
H     2.28528348783094     2.28528348783094     0.00000000000000
H     2.28528348783094     0.00000000000000     2.28528348783094
H     0.00000000000000     2.28528348783094     2.28528348783094
O     2.28528348783094     0.00000000000000     0.00000000000000
O     0.00000000000000     2.28528348783094     0.00000000000000
O     0.00000000000000     0.00000000000000     2.28528348783094
O     2.28528348783094     2.28528348783094     2.28528348783094
O     3.42792523174640     3.42792523174640     1.14264174391547
O     3.42792523174640     1.14264174391547     3.42792523174640
O     1.14264174391547     3.42792523174640     3.42792523174640
O     3.42792523174640     1.14264174391547     1.14264174391547
O     1.14264174391547     3.42792523174640     1.14264174391547
O     1.14264174391547     1.14264174391547     3.42792523174640