CRYSTAL
# Primitive lattice vectors in Angstrom
PRIMVEC
 3.87770440502178 0.00000000000000 0.00000000000000
 -0.00000000000000 3.87770440502178 0.00000000000000
 0.00000000000000 0.00000000000000 3.87770440502178
# Cartesian coordinates in Angstrom.
PRIMCOORD
 10 1
H     0.96942610125544     0.96942610125544     0.96942610125544
H     2.90827830376634     2.90827830376634     0.96942610125544
H     2.90827830376634     0.96942610125544     2.90827830376634
H     0.96942610125544     2.90827830376634     2.90827830376634
O     1.93885220251089     0.00000000000000     0.00000000000000
O     0.00000000000000     1.93885220251089     0.00000000000000
O     0.00000000000000     0.00000000000000     1.93885220251089
O     1.93885220251089     1.93885220251089     0.00000000000000
O     1.93885220251089     0.00000000000000     1.93885220251089
O     0.00000000000000     1.93885220251089     1.93885220251089