CRYSTAL
# Primitive lattice vectors in Angstrom
PRIMVEC
 3.31028802951765 0.00000000000000 0.00000000000000
 -0.00000000000000 3.31028802951765 0.00000000000000
 0.00000000000000 0.00000000000000 3.31028802951765
# Cartesian coordinates in Angstrom.
PRIMCOORD
 4 1
He     0.00000000000000     0.00000000000000     0.00000000000000
O     1.65514401475882     0.00000000000000     0.00000000000000
O     0.00000000000000     1.65514401475882     0.00000000000000
O     0.00000000000000     0.00000000000000     1.65514401475882