CRYSTAL
# Primitive lattice vectors in Angstrom
PRIMVEC
 4.29919533236760 0.00000000000000 0.00000000000000
 -0.00000000000000 4.29919533236760 0.00000000000000
 0.00000000000000 0.00000000000000 4.29919533236760
# Cartesian coordinates in Angstrom.
PRIMCOORD
 10 1
He     1.07479883309190     1.07479883309190     1.07479883309190
He     3.22439649927570     3.22439649927570     1.07479883309190
He     3.22439649927570     1.07479883309190     3.22439649927570
He     1.07479883309190     3.22439649927570     3.22439649927570
O     2.14959766618381     0.00000000000000     0.00000000000000
O     0.00000000000000     2.14959766618381     0.00000000000000
O     0.00000000000000     0.00000000000000     2.14959766618381
O     2.14959766618381     2.14959766618381     0.00000000000000
O     2.14959766618381     0.00000000000000     2.14959766618381
O     0.00000000000000     2.14959766618381     2.14959766618381