CRYSTAL
# Primitive lattice vectors in Angstrom
PRIMVEC
 4.65940097728030 0.00000000000000 0.00000000000000
 -0.00000000000000 4.65940097728030 0.00000000000000
 0.00000000000000 0.00000000000000 4.65940097728030
# Cartesian coordinates in Angstrom.
PRIMCOORD
 14 1
He     0.00000000000000     0.00000000000000     0.00000000000000
He     2.32970048864015     2.32970048864015     0.00000000000000
He     2.32970048864015     0.00000000000000     2.32970048864015
He     0.00000000000000     2.32970048864015     2.32970048864015
O     2.32970048864015     0.00000000000000     0.00000000000000
O     0.00000000000000     2.32970048864015     0.00000000000000
O     0.00000000000000     0.00000000000000     2.32970048864015
O     2.32970048864015     2.32970048864015     2.32970048864015
O     3.49455073296023     3.49455073296023     1.16485024432008
O     3.49455073296023     1.16485024432008     3.49455073296023
O     1.16485024432008     3.49455073296023     3.49455073296023
O     3.49455073296023     1.16485024432008     1.16485024432008
O     1.16485024432008     3.49455073296023     1.16485024432008
O     1.16485024432008     1.16485024432008     3.49455073296023