CRYSTAL
# Primitive lattice vectors in Angstrom
PRIMVEC
 4.94864202148207 0.00000000000000 0.00000000000000
 -0.00000000000000 4.94864202148207 0.00000000000000
 0.00000000000000 0.00000000000000 4.94864202148207
# Cartesian coordinates in Angstrom.
PRIMCOORD
 10 1
Hf     1.23716050537052     1.23716050537052     1.23716050537052
Hf     3.71148151611155     3.71148151611155     1.23716050537052
Hf     3.71148151611155     1.23716050537052     3.71148151611155
Hf     1.23716050537052     3.71148151611155     3.71148151611155
O     2.47432101074104     0.00000000000000     0.00000000000000
O     0.00000000000000     2.47432101074104     0.00000000000000
O     0.00000000000000     0.00000000000000     2.47432101074104
O     2.47432101074104     2.47432101074104     0.00000000000000
O     2.47432101074104     0.00000000000000     2.47432101074104
O     0.00000000000000     2.47432101074104     2.47432101074104