CRYSTAL
# Primitive lattice vectors in Angstrom
PRIMVEC
 5.11600441633274 0.00000000000000 0.00000000000000
 -0.00000000000000 5.11600441633274 0.00000000000000
 0.00000000000000 0.00000000000000 5.11600441633274
# Cartesian coordinates in Angstrom.
PRIMCOORD
 14 1
Hf     0.00000000000000     0.00000000000000     0.00000000000000
Hf     2.55800220816637     2.55800220816637     0.00000000000000
Hf     2.55800220816637     0.00000000000000     2.55800220816637
Hf     0.00000000000000     2.55800220816637     2.55800220816637
O     2.55800220816637     0.00000000000000     0.00000000000000
O     0.00000000000000     2.55800220816637     0.00000000000000
O     0.00000000000000     0.00000000000000     2.55800220816637
O     2.55800220816637     2.55800220816637     2.55800220816637
O     3.83700331224955     3.83700331224955     1.27900110408318
O     3.83700331224955     1.27900110408318     3.83700331224955
O     1.27900110408318     3.83700331224955     3.83700331224955
O     3.83700331224955     1.27900110408318     1.27900110408318
O     1.27900110408318     3.83700331224955     1.27900110408318
O     1.27900110408318     1.27900110408318     3.83700331224955