CRYSTAL
# Primitive lattice vectors in Angstrom
PRIMVEC
 4.05863690597549 0.00000000000000 0.00000000000000
 -0.00000000000000 4.05863690597549 0.00000000000000
 0.00000000000000 0.00000000000000 4.05863690597549
# Cartesian coordinates in Angstrom.
PRIMCOORD
 4 1
Hf     0.00000000000000     0.00000000000000     0.00000000000000
O     2.02931845298774     0.00000000000000     0.00000000000000
O     0.00000000000000     2.02931845298774     0.00000000000000
O     0.00000000000000     0.00000000000000     2.02931845298774