CRYSTAL
# Primitive lattice vectors in Angstrom
PRIMVEC
 5.18885161985776 0.00000000000000 0.00000000000000
 -0.00000000000000 5.18885161985776 0.00000000000000
 0.00000000000000 0.00000000000000 5.18885161985776
# Cartesian coordinates in Angstrom.
PRIMCOORD
 10 1
Hg     1.29721290496444     1.29721290496444     1.29721290496444
Hg     3.89163871489332     3.89163871489332     1.29721290496444
Hg     3.89163871489332     1.29721290496444     3.89163871489332
Hg     1.29721290496444     3.89163871489332     3.89163871489332
O     2.59442580992889     0.00000000000000     0.00000000000000
O     0.00000000000000     2.59442580992889     0.00000000000000
O     0.00000000000000     0.00000000000000     2.59442580992889
O     2.59442580992889     2.59442580992889     0.00000000000000
O     2.59442580992889     0.00000000000000     2.59442580992889
O     0.00000000000000     2.59442580992889     2.59442580992889