CRYSTAL
# Primitive lattice vectors in Angstrom
PRIMVEC
 5.32194413465312 0.00000000000000 0.00000000000000
 -0.00000000000000 5.32194413465312 0.00000000000000
 0.00000000000000 0.00000000000000 5.32194413465312
# Cartesian coordinates in Angstrom.
PRIMCOORD
 14 1
Hg     0.00000000000000     0.00000000000000     0.00000000000000
Hg     2.66097206732656     2.66097206732656     0.00000000000000
Hg     2.66097206732656     0.00000000000000     2.66097206732656
Hg     0.00000000000000     2.66097206732656     2.66097206732656
O     2.66097206732656     0.00000000000000     0.00000000000000
O     0.00000000000000     2.66097206732656     0.00000000000000
O     0.00000000000000     0.00000000000000     2.66097206732656
O     2.66097206732656     2.66097206732656     2.66097206732656
O     3.99145810098984     3.99145810098984     1.33048603366328
O     3.99145810098984     1.33048603366328     3.99145810098984
O     1.33048603366328     3.99145810098984     3.99145810098984
O     3.99145810098984     1.33048603366328     1.33048603366328
O     1.33048603366328     3.99145810098984     1.33048603366328
O     1.33048603366328     1.33048603366328     3.99145810098984