CRYSTAL
# Primitive lattice vectors in Angstrom
PRIMVEC
 5.24067939281529 0.00000000000000 0.00000000000000
 -0.00000000000000 5.24067939281529 0.00000000000000
 0.00000000000000 0.00000000000000 5.24067939281529
# Cartesian coordinates in Angstrom.
PRIMCOORD
 14 1
Ho     0.00000000000000     0.00000000000000     0.00000000000000
Ho     2.62033969640765     2.62033969640765     0.00000000000000
Ho     2.62033969640765     0.00000000000000     2.62033969640765
Ho     0.00000000000000     2.62033969640765     2.62033969640765
O     2.62033969640765     0.00000000000000     0.00000000000000
O     0.00000000000000     2.62033969640765     0.00000000000000
O     0.00000000000000     0.00000000000000     2.62033969640765
O     2.62033969640765     2.62033969640765     2.62033969640765
O     3.93050954461147     3.93050954461147     1.31016984820382
O     3.93050954461147     1.31016984820382     3.93050954461147
O     1.31016984820382     3.93050954461147     3.93050954461147
O     3.93050954461147     1.31016984820382     1.31016984820382
O     1.31016984820382     3.93050954461147     1.31016984820382
O     1.31016984820382     1.31016984820382     3.93050954461147