CRYSTAL
# Primitive lattice vectors in Angstrom
PRIMVEC
 5.16622867691708 0.00000000000000 0.00000000000000
 -0.00000000000000 5.16622867691708 0.00000000000000
 0.00000000000000 0.00000000000000 5.16622867691708
# Cartesian coordinates in Angstrom.
PRIMCOORD
 10 1
Ho     1.29155716922927     1.29155716922927     1.29155716922927
Ho     3.87467150768781     3.87467150768781     1.29155716922927
Ho     3.87467150768781     1.29155716922927     3.87467150768781
Ho     1.29155716922927     3.87467150768781     3.87467150768781
O     2.58311433845854     0.00000000000000     0.00000000000000
O     0.00000000000000     2.58311433845854     0.00000000000000
O     0.00000000000000     0.00000000000000     2.58311433845854
O     2.58311433845854     2.58311433845854     0.00000000000000
O     2.58311433845854     0.00000000000000     2.58311433845854
O     0.00000000000000     2.58311433845854     2.58311433845854