CRYSTAL
# Primitive lattice vectors in Angstrom
PRIMVEC
 5.37834786453039 0.00000000000000 0.00000000000000
 -0.00000000000000 5.37834786453039 0.00000000000000
 0.00000000000000 0.00000000000000 5.37834786453039
# Cartesian coordinates in Angstrom.
PRIMCOORD
 10 1
I     1.34458696613260     1.34458696613260     1.34458696613260
I     4.03376089839780     4.03376089839780     1.34458696613260
I     4.03376089839780     1.34458696613260     4.03376089839780
I     1.34458696613260     4.03376089839780     4.03376089839780
O     2.68917393226520     0.00000000000000     0.00000000000000
O     0.00000000000000     2.68917393226520     0.00000000000000
O     0.00000000000000     0.00000000000000     2.68917393226520
O     2.68917393226520     2.68917393226520     0.00000000000000
O     2.68917393226520     0.00000000000000     2.68917393226520
O     0.00000000000000     2.68917393226520     2.68917393226520