CRYSTAL
# Primitive lattice vectors in Angstrom
PRIMVEC
 5.32610528035423 0.00000000000000 0.00000000000000
 -0.00000000000000 5.32610528035423 0.00000000000000
 0.00000000000000 0.00000000000000 5.32610528035423
# Cartesian coordinates in Angstrom.
PRIMCOORD
 14 1
I     0.00000000000000     0.00000000000000     0.00000000000000
I     2.66305264017712     2.66305264017712     0.00000000000000
I     2.66305264017712     0.00000000000000     2.66305264017712
I     0.00000000000000     2.66305264017712     2.66305264017712
O     2.66305264017712     0.00000000000000     0.00000000000000
O     0.00000000000000     2.66305264017712     0.00000000000000
O     0.00000000000000     0.00000000000000     2.66305264017712
O     2.66305264017712     2.66305264017712     2.66305264017712
O     3.99457896026567     3.99457896026567     1.33152632008856
O     3.99457896026567     1.33152632008856     3.99457896026567
O     1.33152632008856     3.99457896026567     3.99457896026567
O     3.99457896026567     1.33152632008856     1.33152632008856
O     1.33152632008856     3.99457896026567     1.33152632008856
O     1.33152632008856     1.33152632008856     3.99457896026567