CRYSTAL
# Primitive lattice vectors in Angstrom
PRIMVEC
 3.86909040731764 0.00000000000000 0.00000000000000
 -0.00000000000000 3.86909040731764 0.00000000000000
 0.00000000000000 0.00000000000000 3.86909040731764
# Cartesian coordinates in Angstrom.
PRIMCOORD
 4 1
I     0.00000000000000     0.00000000000000     0.00000000000000
O     1.93454520365882     0.00000000000000     0.00000000000000
O     0.00000000000000     1.93454520365882     0.00000000000000
O     0.00000000000000     0.00000000000000     1.93454520365882