CRYSTAL
# Primitive lattice vectors in Angstrom
PRIMVEC
 4.10073739087368 0.00000000000000 0.00000000000000
 -0.00000000000000 4.10073739087368 0.00000000000000
 0.00000000000000 0.00000000000000 4.10073739087368
# Cartesian coordinates in Angstrom.
PRIMCOORD
 4 1
In     0.00000000000000     0.00000000000000     0.00000000000000
O     2.05036869543684     0.00000000000000     0.00000000000000
O     0.00000000000000     2.05036869543684     0.00000000000000
O     0.00000000000000     0.00000000000000     2.05036869543684