CRYSTAL
# Primitive lattice vectors in Angstrom
PRIMVEC
 5.25168688586646 0.00000000000000 0.00000000000000
 -0.00000000000000 5.25168688586646 0.00000000000000
 0.00000000000000 0.00000000000000 5.25168688586646
# Cartesian coordinates in Angstrom.
PRIMCOORD
 14 1
In     0.00000000000000     0.00000000000000     0.00000000000000
In     2.62584344293323     2.62584344293323     0.00000000000000
In     2.62584344293323     0.00000000000000     2.62584344293323
In     0.00000000000000     2.62584344293323     2.62584344293323
O     2.62584344293323     0.00000000000000     0.00000000000000
O     0.00000000000000     2.62584344293323     0.00000000000000
O     0.00000000000000     0.00000000000000     2.62584344293323
O     2.62584344293323     2.62584344293323     2.62584344293323
O     3.93876516439985     3.93876516439985     1.31292172146662
O     3.93876516439985     1.31292172146662     3.93876516439985
O     1.31292172146662     3.93876516439985     3.93876516439985
O     3.93876516439985     1.31292172146662     1.31292172146662
O     1.31292172146662     3.93876516439985     1.31292172146662
O     1.31292172146662     1.31292172146662     3.93876516439985