CRYSTAL
# Primitive lattice vectors in Angstrom
PRIMVEC
 5.07873628496605 0.00000000000000 0.00000000000000
 -0.00000000000000 5.07873628496605 0.00000000000000
 0.00000000000000 0.00000000000000 5.07873628496605
# Cartesian coordinates in Angstrom.
PRIMCOORD
 10 1
In     1.26968407124151     1.26968407124151     1.26968407124151
In     3.80905221372454     3.80905221372454     1.26968407124151
In     3.80905221372454     1.26968407124151     3.80905221372454
In     1.26968407124151     3.80905221372454     3.80905221372454
O     2.53936814248303     0.00000000000000     0.00000000000000
O     0.00000000000000     2.53936814248303     0.00000000000000
O     0.00000000000000     0.00000000000000     2.53936814248303
O     2.53936814248303     2.53936814248303     0.00000000000000
O     2.53936814248303     0.00000000000000     2.53936814248303
O     0.00000000000000     2.53936814248303     2.53936814248303