CRYSTAL
# Primitive lattice vectors in Angstrom
PRIMVEC
 4.71189077681149 0.00000000000000 0.00000000000000
 -0.00000000000000 4.71189077681149 0.00000000000000
 0.00000000000000 0.00000000000000 4.71189077681149
# Cartesian coordinates in Angstrom.
PRIMCOORD
 10 1
Ir     1.17797269420287     1.17797269420287     1.17797269420287
Ir     3.53391808260862     3.53391808260862     1.17797269420287
Ir     3.53391808260862     1.17797269420287     3.53391808260862
Ir     1.17797269420287     3.53391808260862     3.53391808260862
O     2.35594538840575     0.00000000000000     0.00000000000000
O     0.00000000000000     2.35594538840575     0.00000000000000
O     0.00000000000000     0.00000000000000     2.35594538840575
O     2.35594538840575     2.35594538840575     0.00000000000000
O     2.35594538840575     0.00000000000000     2.35594538840575
O     0.00000000000000     2.35594538840575     2.35594538840575