CRYSTAL
# Primitive lattice vectors in Angstrom
PRIMVEC
 4.96511371431722 0.00000000000000 0.00000000000000
 -0.00000000000000 4.96511371431722 0.00000000000000
 0.00000000000000 0.00000000000000 4.96511371431722
# Cartesian coordinates in Angstrom.
PRIMCOORD
 14 1
Ir     0.00000000000000     0.00000000000000     0.00000000000000
Ir     2.48255685715861     2.48255685715861     0.00000000000000
Ir     2.48255685715861     0.00000000000000     2.48255685715861
Ir     0.00000000000000     2.48255685715861     2.48255685715861
O     2.48255685715861     0.00000000000000     0.00000000000000
O     0.00000000000000     2.48255685715861     0.00000000000000
O     0.00000000000000     0.00000000000000     2.48255685715861
O     2.48255685715861     2.48255685715861     2.48255685715861
O     3.72383528573791     3.72383528573791     1.24127842857930
O     3.72383528573791     1.24127842857930     3.72383528573791
O     1.24127842857930     3.72383528573791     3.72383528573791
O     3.72383528573791     1.24127842857930     1.24127842857930
O     1.24127842857930     3.72383528573791     1.24127842857930
O     1.24127842857930     1.24127842857930     3.72383528573791