CRYSTAL
# Primitive lattice vectors in Angstrom
PRIMVEC
 3.71622181044982 0.00000000000000 0.00000000000000
 -0.00000000000000 3.71622181044982 0.00000000000000
 0.00000000000000 0.00000000000000 3.71622181044982
# Cartesian coordinates in Angstrom.
PRIMCOORD
 4 1
Ir     0.00000000000000     0.00000000000000     0.00000000000000
O     1.85811090522491     0.00000000000000     0.00000000000000
O     0.00000000000000     1.85811090522491     0.00000000000000
O     0.00000000000000     0.00000000000000     1.85811090522491