CRYSTAL
# Primitive lattice vectors in Angstrom
PRIMVEC
 5.55547336108261 0.00000000000000 0.00000000000000
 -0.00000000000000 5.55547336108261 0.00000000000000
 0.00000000000000 0.00000000000000 5.55547336108261
# Cartesian coordinates in Angstrom.
PRIMCOORD
 14 1
K     0.00000000000000     0.00000000000000     0.00000000000000
K     2.77773668054131     2.77773668054131     0.00000000000000
K     2.77773668054131     0.00000000000000     2.77773668054131
K     0.00000000000000     2.77773668054131     2.77773668054131
O     2.77773668054131     0.00000000000000     0.00000000000000
O     0.00000000000000     2.77773668054131     0.00000000000000
O     0.00000000000000     0.00000000000000     2.77773668054131
O     2.77773668054131     2.77773668054131     2.77773668054131
O     4.16660502081196     4.16660502081196     1.38886834027065
O     4.16660502081196     1.38886834027065     4.16660502081196
O     1.38886834027065     4.16660502081196     4.16660502081196
O     4.16660502081196     1.38886834027065     1.38886834027065
O     1.38886834027065     4.16660502081196     1.38886834027065
O     1.38886834027065     1.38886834027065     4.16660502081196