CRYSTAL
# Primitive lattice vectors in Angstrom
PRIMVEC
 5.80094085566977 0.00000000000000 0.00000000000000
 -0.00000000000000 5.80094085566977 0.00000000000000
 0.00000000000000 0.00000000000000 5.80094085566977
# Cartesian coordinates in Angstrom.
PRIMCOORD
 10 1
K     1.45023521391744     1.45023521391744     1.45023521391744
K     4.35070564175233     4.35070564175233     1.45023521391744
K     4.35070564175233     1.45023521391744     4.35070564175233
K     1.45023521391744     4.35070564175233     4.35070564175233
O     2.90047042783489     0.00000000000000     0.00000000000000
O     0.00000000000000     2.90047042783489     0.00000000000000
O     0.00000000000000     0.00000000000000     2.90047042783489
O     2.90047042783489     2.90047042783489     0.00000000000000
O     2.90047042783489     0.00000000000000     2.90047042783489
O     0.00000000000000     2.90047042783489     2.90047042783489