CRYSTAL
# Primitive lattice vectors in Angstrom
PRIMVEC
 4.72927583177008 0.00000000000000 0.00000000000000
 -0.00000000000000 4.72927583177008 0.00000000000000
 0.00000000000000 0.00000000000000 4.72927583177008
# Cartesian coordinates in Angstrom.
PRIMCOORD
 4 1
K     0.00000000000000     0.00000000000000     0.00000000000000
O     2.36463791588503     0.00000000000000     0.00000000000000
O     0.00000000000000     2.36463791588503     0.00000000000000
O     0.00000000000000     0.00000000000000     2.36463791588503