CRYSTAL
# Primitive lattice vectors in Angstrom
PRIMVEC
 5.52123436273231 0.00000000000000 0.00000000000000
 -0.00000000000000 5.52123436273231 0.00000000000000
 0.00000000000000 0.00000000000000 5.52123436273231
# Cartesian coordinates in Angstrom.
PRIMCOORD
 10 1
Kr     1.38030859068308     1.38030859068308     1.38030859068308
Kr     4.14092577204924     4.14092577204924     1.38030859068308
Kr     4.14092577204924     1.38030859068308     4.14092577204924
Kr     1.38030859068308     4.14092577204924     4.14092577204924
O     2.76061718136616     0.00000000000000     0.00000000000000
O     0.00000000000000     2.76061718136616     0.00000000000000
O     0.00000000000000     0.00000000000000     2.76061718136616
O     2.76061718136616     2.76061718136616     0.00000000000000
O     2.76061718136616     0.00000000000000     2.76061718136616
O     0.00000000000000     2.76061718136616     2.76061718136616