CRYSTAL
# Primitive lattice vectors in Angstrom
PRIMVEC
 5.49175222105976 0.00000000000000 0.00000000000000
 -0.00000000000000 5.49175222105976 0.00000000000000
 0.00000000000000 0.00000000000000 5.49175222105976
# Cartesian coordinates in Angstrom.
PRIMCOORD
 14 1
Kr     0.00000000000000     0.00000000000000     0.00000000000000
Kr     2.74587611052988     2.74587611052988     0.00000000000000
Kr     2.74587611052988     0.00000000000000     2.74587611052988
Kr     0.00000000000000     2.74587611052988     2.74587611052988
O     2.74587611052988     0.00000000000000     0.00000000000000
O     0.00000000000000     2.74587611052988     0.00000000000000
O     0.00000000000000     0.00000000000000     2.74587611052988
O     2.74587611052988     2.74587611052988     2.74587611052988
O     4.11881416579482     4.11881416579482     1.37293805526494
O     4.11881416579482     1.37293805526494     4.11881416579482
O     1.37293805526494     4.11881416579482     4.11881416579482
O     4.11881416579482     1.37293805526494     1.37293805526494
O     1.37293805526494     4.11881416579482     1.37293805526494
O     1.37293805526494     1.37293805526494     4.11881416579482