CRYSTAL
# Primitive lattice vectors in Angstrom
PRIMVEC
 3.93144667695809 0.00000000000000 0.00000000000000
 -0.00000000000000 3.93144667695809 0.00000000000000
 0.00000000000000 0.00000000000000 3.93144667695809
# Cartesian coordinates in Angstrom.
PRIMCOORD
 4 1
Kr     0.00000000000000     0.00000000000000     0.00000000000000
O     1.96572333847904     0.00000000000000     0.00000000000000
O     0.00000000000000     1.96572333847904     0.00000000000000
O     0.00000000000000     0.00000000000000     1.96572333847904