CRYSTAL
# Primitive lattice vectors in Angstrom
PRIMVEC
 4.36060734401535 0.00000000000000 0.00000000000000
 -0.00000000000000 4.36060734401535 0.00000000000000
 0.00000000000000 0.00000000000000 4.36060734401535
# Cartesian coordinates in Angstrom.
PRIMCOORD
 4 1
La     0.00000000000000     0.00000000000000     0.00000000000000
O     2.18030367200767     0.00000000000000     0.00000000000000
O     0.00000000000000     2.18030367200767     0.00000000000000
O     0.00000000000000     0.00000000000000     2.18030367200767