CRYSTAL
# Primitive lattice vectors in Angstrom
PRIMVEC
 5.60496282706902 0.00000000000000 0.00000000000000
 -0.00000000000000 5.60496282706902 0.00000000000000
 0.00000000000000 0.00000000000000 5.60496282706902
# Cartesian coordinates in Angstrom.
PRIMCOORD
 14 1
La     0.00000000000000     0.00000000000000     0.00000000000000
La     2.80248141353451     2.80248141353451     0.00000000000000
La     2.80248141353451     0.00000000000000     2.80248141353451
La     0.00000000000000     2.80248141353451     2.80248141353451
O     2.80248141353451     0.00000000000000     0.00000000000000
O     0.00000000000000     2.80248141353451     0.00000000000000
O     0.00000000000000     0.00000000000000     2.80248141353451
O     2.80248141353451     2.80248141353451     2.80248141353451
O     4.20372212030177     4.20372212030177     1.40124070676726
O     4.20372212030177     1.40124070676726     4.20372212030177
O     1.40124070676726     4.20372212030177     4.20372212030177
O     4.20372212030177     1.40124070676726     1.40124070676726
O     1.40124070676726     4.20372212030177     1.40124070676726
O     1.40124070676726     1.40124070676726     4.20372212030177