CRYSTAL
# Primitive lattice vectors in Angstrom
PRIMVEC
 5.55941313166393 0.00000000000000 0.00000000000000
 -0.00000000000000 5.55941313166393 0.00000000000000
 0.00000000000000 0.00000000000000 5.55941313166393
# Cartesian coordinates in Angstrom.
PRIMCOORD
 10 1
La     1.38985328291598     1.38985328291598     1.38985328291598
La     4.16955984874795     4.16955984874795     1.38985328291598
La     4.16955984874795     1.38985328291598     4.16955984874795
La     1.38985328291598     4.16955984874795     4.16955984874795
O     2.77970656583197     0.00000000000000     0.00000000000000
O     0.00000000000000     2.77970656583197     0.00000000000000
O     0.00000000000000     0.00000000000000     2.77970656583197
O     2.77970656583197     2.77970656583197     0.00000000000000
O     2.77970656583197     0.00000000000000     2.77970656583197
O     0.00000000000000     2.77970656583197     2.77970656583197