CRYSTAL
# Primitive lattice vectors in Angstrom
PRIMVEC
 4.32615092479171 0.00000000000000 0.00000000000000
 -0.00000000000000 4.32615092479171 0.00000000000000
 0.00000000000000 0.00000000000000 4.32615092479171
# Cartesian coordinates in Angstrom.
PRIMCOORD
 10 1
Li     1.08153773119793     1.08153773119793     1.08153773119793
Li     3.24461319359379     3.24461319359379     1.08153773119793
Li     3.24461319359379     1.08153773119793     3.24461319359379
Li     1.08153773119793     3.24461319359379     3.24461319359379
O     2.16307546239586     0.00000000000000     0.00000000000000
O     0.00000000000000     2.16307546239586     0.00000000000000
O     0.00000000000000     0.00000000000000     2.16307546239586
O     2.16307546239586     2.16307546239586     0.00000000000000
O     2.16307546239586     0.00000000000000     2.16307546239586
O     0.00000000000000     2.16307546239586     2.16307546239586