CRYSTAL
# Primitive lattice vectors in Angstrom
PRIMVEC
 4.82907095899136 0.00000000000000 0.00000000000000
 -0.00000000000000 4.82907095899136 0.00000000000000
 0.00000000000000 0.00000000000000 4.82907095899136
# Cartesian coordinates in Angstrom.
PRIMCOORD
 14 1
Li     0.00000000000000     0.00000000000000     0.00000000000000
Li     2.41453547949568     2.41453547949568     0.00000000000000
Li     2.41453547949568     0.00000000000000     2.41453547949568
Li     0.00000000000000     2.41453547949568     2.41453547949568
O     2.41453547949568     0.00000000000000     0.00000000000000
O     0.00000000000000     2.41453547949568     0.00000000000000
O     0.00000000000000     0.00000000000000     2.41453547949568
O     2.41453547949568     2.41453547949568     2.41453547949568
O     3.62180321924352     3.62180321924352     1.20726773974784
O     3.62180321924352     1.20726773974784     3.62180321924352
O     1.20726773974784     3.62180321924352     3.62180321924352
O     3.62180321924352     1.20726773974784     1.20726773974784
O     1.20726773974784     3.62180321924352     1.20726773974784
O     1.20726773974784     1.20726773974784     3.62180321924352