CRYSTAL
# Primitive lattice vectors in Angstrom
PRIMVEC
 3.43838955881766 0.00000000000000 0.00000000000000
 -0.00000000000000 3.43838955881766 0.00000000000000
 0.00000000000000 0.00000000000000 3.43838955881766
# Cartesian coordinates in Angstrom.
PRIMCOORD
 4 1
Li     0.00000000000000     0.00000000000000     0.00000000000000
O     1.71919477940882     0.00000000000000     0.00000000000000
O     0.00000000000000     1.71919477940882     0.00000000000000
O     0.00000000000000     0.00000000000000     1.71919477940882