CRYSTAL
# Primitive lattice vectors in Angstrom
PRIMVEC
 5.36050415156338 0.00000000000000 0.00000000000000
 -0.00000000000000 5.36050415156338 0.00000000000000
 0.00000000000000 0.00000000000000 5.36050415156338
# Cartesian coordinates in Angstrom.
PRIMCOORD
 14 1
Lr     0.00000000000000     0.00000000000000     0.00000000000000
Lr     2.68025207578169     2.68025207578169     0.00000000000000
Lr     2.68025207578169     0.00000000000000     2.68025207578169
Lr     0.00000000000000     2.68025207578169     2.68025207578169
O     2.68025207578169     0.00000000000000     0.00000000000000
O     0.00000000000000     2.68025207578169     0.00000000000000
O     0.00000000000000     0.00000000000000     2.68025207578169
O     2.68025207578169     2.68025207578169     2.68025207578169
O     4.02037811367253     4.02037811367253     1.34012603789084
O     4.02037811367253     1.34012603789084     4.02037811367253
O     1.34012603789084     4.02037811367253     4.02037811367253
O     4.02037811367253     1.34012603789084     1.34012603789084
O     1.34012603789084     4.02037811367253     1.34012603789084
O     1.34012603789084     1.34012603789084     4.02037811367253