CRYSTAL
# Primitive lattice vectors in Angstrom
PRIMVEC
 5.25813697391407 0.00000000000000 0.00000000000000
 -0.00000000000000 5.25813697391407 0.00000000000000
 0.00000000000000 0.00000000000000 5.25813697391407
# Cartesian coordinates in Angstrom.
PRIMCOORD
 10 1
Lr     1.31453424347851     1.31453424347851     1.31453424347851
Lr     3.94360273043555     3.94360273043555     1.31453424347851
Lr     3.94360273043555     1.31453424347851     3.94360273043555
Lr     1.31453424347851     3.94360273043555     3.94360273043555
O     2.62906848695704     0.00000000000000     0.00000000000000
O     0.00000000000000     2.62906848695704     0.00000000000000
O     0.00000000000000     0.00000000000000     2.62906848695704
O     2.62906848695704     2.62906848695704     0.00000000000000
O     2.62906848695704     0.00000000000000     2.62906848695704
O     0.00000000000000     2.62906848695704     2.62906848695704