CRYSTAL
# Primitive lattice vectors in Angstrom
PRIMVEC
 4.24603498256182 0.00000000000000 0.00000000000000
 -0.00000000000000 4.24603498256182 0.00000000000000
 0.00000000000000 0.00000000000000 4.24603498256182
# Cartesian coordinates in Angstrom.
PRIMCOORD
 4 1
Lr     0.00000000000000     0.00000000000000     0.00000000000000
O     2.12301749128090     0.00000000000000     0.00000000000000
O     0.00000000000000     2.12301749128090     0.00000000000000
O     0.00000000000000     0.00000000000000     2.12301749128090