CRYSTAL
# Primitive lattice vectors in Angstrom
PRIMVEC
 5.26063145338573 0.00000000000000 0.00000000000000
 -0.00000000000000 5.26063145338573 0.00000000000000
 0.00000000000000 0.00000000000000 5.26063145338573
# Cartesian coordinates in Angstrom.
PRIMCOORD
 14 1
Lu     0.00000000000000     0.00000000000000     0.00000000000000
Lu     2.63031572669286     2.63031572669286     0.00000000000000
Lu     2.63031572669286     0.00000000000000     2.63031572669286
Lu     0.00000000000000     2.63031572669286     2.63031572669286
O     2.63031572669286     0.00000000000000     0.00000000000000
O     0.00000000000000     2.63031572669286     0.00000000000000
O     0.00000000000000     0.00000000000000     2.63031572669286
O     2.63031572669286     2.63031572669286     2.63031572669286
O     3.94547359003930     3.94547359003930     1.31515786334643
O     3.94547359003930     1.31515786334643     3.94547359003930
O     1.31515786334643     3.94547359003930     3.94547359003930
O     3.94547359003930     1.31515786334643     1.31515786334643
O     1.31515786334643     3.94547359003930     1.31515786334643
O     1.31515786334643     1.31515786334643     3.94547359003930