CRYSTAL
# Primitive lattice vectors in Angstrom
PRIMVEC
 4.15121332885256 0.00000000000000 0.00000000000000
 -0.00000000000000 4.15121332885256 0.00000000000000
 0.00000000000000 0.00000000000000 4.15121332885256
# Cartesian coordinates in Angstrom.
PRIMCOORD
 4 1
Lu     0.00000000000000     0.00000000000000     0.00000000000000
O     2.07560666442627     0.00000000000000     0.00000000000000
O     0.00000000000000     2.07560666442627     0.00000000000000
O     0.00000000000000     0.00000000000000     2.07560666442627