CRYSTAL
# Primitive lattice vectors in Angstrom
PRIMVEC
 5.12319785910752 0.00000000000000 0.00000000000000
 -0.00000000000000 5.12319785910752 0.00000000000000
 0.00000000000000 0.00000000000000 5.12319785910752
# Cartesian coordinates in Angstrom.
PRIMCOORD
 10 1
Lu     1.28079946477688     1.28079946477688     1.28079946477688
Lu     3.84239839433064     3.84239839433064     1.28079946477688
Lu     3.84239839433064     1.28079946477688     3.84239839433064
Lu     1.28079946477688     3.84239839433064     3.84239839433064
O     2.56159892955376     0.00000000000000     0.00000000000000
O     0.00000000000000     2.56159892955376     0.00000000000000
O     0.00000000000000     0.00000000000000     2.56159892955376
O     2.56159892955376     2.56159892955376     0.00000000000000
O     2.56159892955376     0.00000000000000     2.56159892955376
O     0.00000000000000     2.56159892955376     2.56159892955376