CRYSTAL
# Primitive lattice vectors in Angstrom
PRIMVEC
 5.28276689819404 0.00000000000000 0.00000000000000
 -0.00000000000000 5.28276689819404 0.00000000000000
 0.00000000000000 0.00000000000000 5.28276689819404
# Cartesian coordinates in Angstrom.
PRIMCOORD
 14 1
Md     0.00000000000000     0.00000000000000     0.00000000000000
Md     2.64138344909702     2.64138344909702     0.00000000000000
Md     2.64138344909702     0.00000000000000     2.64138344909702
Md     0.00000000000000     2.64138344909702     2.64138344909702
O     2.64138344909702     0.00000000000000     0.00000000000000
O     0.00000000000000     2.64138344909702     0.00000000000000
O     0.00000000000000     0.00000000000000     2.64138344909702
O     2.64138344909702     2.64138344909702     2.64138344909702
O     3.96207517364553     3.96207517364553     1.32069172454851
O     3.96207517364553     1.32069172454851     3.96207517364553
O     1.32069172454851     3.96207517364553     3.96207517364553
O     3.96207517364553     1.32069172454851     1.32069172454851
O     1.32069172454851     3.96207517364553     1.32069172454851
O     1.32069172454851     1.32069172454851     3.96207517364553