CRYSTAL
# Primitive lattice vectors in Angstrom
PRIMVEC
 4.07221371094356 0.00000000000000 0.00000000000000
 -0.00000000000000 4.07221371094356 0.00000000000000
 0.00000000000000 0.00000000000000 4.07221371094356
# Cartesian coordinates in Angstrom.
PRIMCOORD
 4 1
Md     0.00000000000000     0.00000000000000     0.00000000000000
O     2.03610685547177     0.00000000000000     0.00000000000000
O     0.00000000000000     2.03610685547177     0.00000000000000
O     0.00000000000000     0.00000000000000     2.03610685547177