CRYSTAL
# Primitive lattice vectors in Angstrom
PRIMVEC
 5.22027613158477 0.00000000000000 0.00000000000000
 -0.00000000000000 5.22027613158477 0.00000000000000
 0.00000000000000 0.00000000000000 5.22027613158477
# Cartesian coordinates in Angstrom.
PRIMCOORD
 10 1
Md     1.30506903289619     1.30506903289619     1.30506903289619
Md     3.91520709868858     3.91520709868858     1.30506903289619
Md     3.91520709868858     1.30506903289619     3.91520709868858
Md     1.30506903289619     3.91520709868858     3.91520709868858
O     2.61013806579239     0.00000000000000     0.00000000000000
O     0.00000000000000     2.61013806579239     0.00000000000000
O     0.00000000000000     0.00000000000000     2.61013806579239
O     2.61013806579239     2.61013806579239     0.00000000000000
O     2.61013806579239     0.00000000000000     2.61013806579239
O     0.00000000000000     2.61013806579239     2.61013806579239