CRYSTAL
# Primitive lattice vectors in Angstrom
PRIMVEC
 5.04601777284144 0.00000000000000 0.00000000000000
 -0.00000000000000 5.04601777284144 0.00000000000000
 0.00000000000000 0.00000000000000 5.04601777284144
# Cartesian coordinates in Angstrom.
PRIMCOORD
 14 1
Mg     0.00000000000000     0.00000000000000     0.00000000000000
Mg     2.52300888642072     2.52300888642072     0.00000000000000
Mg     2.52300888642072     0.00000000000000     2.52300888642072
Mg     0.00000000000000     2.52300888642072     2.52300888642072
O     2.52300888642072     0.00000000000000     0.00000000000000
O     0.00000000000000     2.52300888642072     0.00000000000000
O     0.00000000000000     0.00000000000000     2.52300888642072
O     2.52300888642072     2.52300888642072     2.52300888642072
O     3.78451332963108     3.78451332963108     1.26150444321036
O     3.78451332963108     1.26150444321036     3.78451332963108
O     1.26150444321036     3.78451332963108     3.78451332963108
O     3.78451332963108     1.26150444321036     1.26150444321036
O     1.26150444321036     3.78451332963108     1.26150444321036
O     1.26150444321036     1.26150444321036     3.78451332963108