CRYSTAL
# Primitive lattice vectors in Angstrom
PRIMVEC
 4.73528778808827 0.00000000000000 0.00000000000000
 -0.00000000000000 4.73528778808827 0.00000000000000
 0.00000000000000 0.00000000000000 4.73528778808827
# Cartesian coordinates in Angstrom.
PRIMCOORD
 10 1
Mg     1.18382194702206     1.18382194702206     1.18382194702206
Mg     3.55146584106620     3.55146584106620     1.18382194702206
Mg     3.55146584106620     1.18382194702206     3.55146584106620
Mg     1.18382194702206     3.55146584106620     3.55146584106620
O     2.36764389404414     0.00000000000000     0.00000000000000
O     0.00000000000000     2.36764389404414     0.00000000000000
O     0.00000000000000     0.00000000000000     2.36764389404414
O     2.36764389404414     2.36764389404414     0.00000000000000
O     2.36764389404414     0.00000000000000     2.36764389404414
O     0.00000000000000     2.36764389404414     2.36764389404414