CRYSTAL
# Primitive lattice vectors in Angstrom
PRIMVEC
 3.84831348438483 0.00000000000000 0.00000000000000
 -0.00000000000000 3.84831348438483 0.00000000000000
 0.00000000000000 0.00000000000000 3.84831348438483
# Cartesian coordinates in Angstrom.
PRIMCOORD
 4 1
Mg     0.00000000000000     0.00000000000000     0.00000000000000
O     1.92415674219241     0.00000000000000     0.00000000000000
O     0.00000000000000     1.92415674219241     0.00000000000000
O     0.00000000000000     0.00000000000000     1.92415674219241