CRYSTAL
# Primitive lattice vectors in Angstrom
PRIMVEC
 3.50408769255130 0.00000000000000 0.00000000000000
 -0.00000000000000 3.50408769255130 0.00000000000000
 0.00000000000000 0.00000000000000 3.50408769255130
# Cartesian coordinates in Angstrom.
PRIMCOORD
 4 1
Mn     0.00000000000000     0.00000000000000     0.00000000000000
O     1.75204384627565     0.00000000000000     0.00000000000000
O     0.00000000000000     1.75204384627565     0.00000000000000
O     0.00000000000000     0.00000000000000     1.75204384627565