CRYSTAL
# Primitive lattice vectors in Angstrom
PRIMVEC
 4.43316881061359 0.00000000000000 0.00000000000000
 -0.00000000000000 4.43316881061359 0.00000000000000
 0.00000000000000 0.00000000000000 4.43316881061359
# Cartesian coordinates in Angstrom.
PRIMCOORD
 10 1
Mn     1.10829220265340     1.10829220265340     1.10829220265340
Mn     3.32487660796019     3.32487660796019     1.10829220265340
Mn     3.32487660796019     1.10829220265340     3.32487660796019
Mn     1.10829220265340     3.32487660796019     3.32487660796019
O     2.21658440530680     0.00000000000000     0.00000000000000
O     0.00000000000000     2.21658440530680     0.00000000000000
O     0.00000000000000     0.00000000000000     2.21658440530680
O     2.21658440530680     2.21658440530680     0.00000000000000
O     2.21658440530680     0.00000000000000     2.21658440530680
O     0.00000000000000     2.21658440530680     2.21658440530680