CRYSTAL
# Primitive lattice vectors in Angstrom
PRIMVEC
 4.74830603914735 0.00000000000000 0.00000000000000
 -0.00000000000000 4.74830603914735 0.00000000000000
 0.00000000000000 0.00000000000000 4.74830603914735
# Cartesian coordinates in Angstrom.
PRIMCOORD
 14 1
Mn     0.00000000000000     0.00000000000000     0.00000000000000
Mn     2.37415301957368     2.37415301957368     0.00000000000000
Mn     2.37415301957368     0.00000000000000     2.37415301957368
Mn     0.00000000000000     2.37415301957368     2.37415301957368
O     2.37415301957368     0.00000000000000     0.00000000000000
O     0.00000000000000     2.37415301957368     0.00000000000000
O     0.00000000000000     0.00000000000000     2.37415301957368
O     2.37415301957368     2.37415301957368     2.37415301957368
O     3.56122952936051     3.56122952936051     1.18707650978684
O     3.56122952936051     1.18707650978684     3.56122952936051
O     1.18707650978684     3.56122952936051     3.56122952936051
O     3.56122952936051     1.18707650978684     1.18707650978684
O     1.18707650978684     3.56122952936051     1.18707650978684
O     1.18707650978684     1.18707650978684     3.56122952936051