CRYSTAL
# Primitive lattice vectors in Angstrom
PRIMVEC
 3.76635829104815 0.00000000000000 0.00000000000000
 -0.00000000000000 3.76635829104815 0.00000000000000
 0.00000000000000 0.00000000000000 3.76635829104815
# Cartesian coordinates in Angstrom.
PRIMCOORD
 4 1
Mo     0.00000000000000     0.00000000000000     0.00000000000000
O     1.88317914552407     0.00000000000000     0.00000000000000
O     0.00000000000000     1.88317914552407     0.00000000000000
O     0.00000000000000     0.00000000000000     1.88317914552407