CRYSTAL
# Primitive lattice vectors in Angstrom
PRIMVEC
 4.91303574849856 0.00000000000000 0.00000000000000
 -0.00000000000000 4.91303574849856 0.00000000000000
 0.00000000000000 0.00000000000000 4.91303574849856
# Cartesian coordinates in Angstrom.
PRIMCOORD
 14 1
Mo     0.00000000000000     0.00000000000000     0.00000000000000
Mo     2.45651787424928     2.45651787424928     0.00000000000000
Mo     2.45651787424928     0.00000000000000     2.45651787424928
Mo     0.00000000000000     2.45651787424928     2.45651787424928
O     2.45651787424928     0.00000000000000     0.00000000000000
O     0.00000000000000     2.45651787424928     0.00000000000000
O     0.00000000000000     0.00000000000000     2.45651787424928
O     2.45651787424928     2.45651787424928     2.45651787424928
O     3.68477681137392     3.68477681137392     1.22825893712464
O     3.68477681137392     1.22825893712464     3.68477681137392
O     1.22825893712464     3.68477681137392     3.68477681137392
O     3.68477681137392     1.22825893712464     1.22825893712464
O     1.22825893712464     3.68477681137392     1.22825893712464
O     1.22825893712464     1.22825893712464     3.68477681137392