CRYSTAL
# Primitive lattice vectors in Angstrom
PRIMVEC
 4.75581331396631 0.00000000000000 0.00000000000000
 -0.00000000000000 4.75581331396631 0.00000000000000
 0.00000000000000 0.00000000000000 4.75581331396631
# Cartesian coordinates in Angstrom.
PRIMCOORD
 10 1
Mo     1.18895332849157     1.18895332849157     1.18895332849157
Mo     3.56685998547473     3.56685998547473     1.18895332849157
Mo     3.56685998547473     1.18895332849157     3.56685998547473
Mo     1.18895332849157     3.56685998547473     3.56685998547473
O     2.37790665698316     0.00000000000000     0.00000000000000
O     0.00000000000000     2.37790665698316     0.00000000000000
O     0.00000000000000     0.00000000000000     2.37790665698316
O     2.37790665698316     2.37790665698316     0.00000000000000
O     2.37790665698316     0.00000000000000     2.37790665698316
O     0.00000000000000     2.37790665698316     2.37790665698316