CRYSTAL
# Primitive lattice vectors in Angstrom
PRIMVEC
 4.71484943893173 0.00000000000000 0.00000000000000
 -0.00000000000000 4.71484943893173 0.00000000000000
 0.00000000000000 0.00000000000000 4.71484943893173
# Cartesian coordinates in Angstrom.
PRIMCOORD
 14 1
N     0.00000000000000     0.00000000000000     0.00000000000000
N     2.35742471946587     2.35742471946587     0.00000000000000
N     2.35742471946587     0.00000000000000     2.35742471946587
N     0.00000000000000     2.35742471946587     2.35742471946587
O     2.35742471946587     0.00000000000000     0.00000000000000
O     0.00000000000000     2.35742471946587     0.00000000000000
O     0.00000000000000     0.00000000000000     2.35742471946587
O     2.35742471946587     2.35742471946587     2.35742471946587
O     3.53613707919880     3.53613707919880     1.17871235973293
O     3.53613707919880     1.17871235973293     3.53613707919880
O     1.17871235973293     3.53613707919880     3.53613707919880
O     3.53613707919880     1.17871235973293     1.17871235973293
O     1.17871235973293     3.53613707919880     1.17871235973293
O     1.17871235973293     1.17871235973293     3.53613707919880