CRYSTAL
# Primitive lattice vectors in Angstrom
PRIMVEC
 4.39015540318825 0.00000000000000 0.00000000000000
 -0.00000000000000 4.39015540318825 0.00000000000000
 0.00000000000000 0.00000000000000 4.39015540318825
# Cartesian coordinates in Angstrom.
PRIMCOORD
 10 1
N     1.09753885079706     1.09753885079706     1.09753885079706
N     3.29261655239119     3.29261655239119     1.09753885079706
N     3.29261655239119     1.09753885079706     3.29261655239119
N     1.09753885079706     3.29261655239119     3.29261655239119
O     2.19507770159413     0.00000000000000     0.00000000000000
O     0.00000000000000     2.19507770159413     0.00000000000000
O     0.00000000000000     0.00000000000000     2.19507770159413
O     2.19507770159413     2.19507770159413     0.00000000000000
O     2.19507770159413     0.00000000000000     2.19507770159413
O     0.00000000000000     2.19507770159413     2.19507770159413