CRYSTAL
# Primitive lattice vectors in Angstrom
PRIMVEC
 3.30980166733331 0.00000000000000 0.00000000000000
 -0.00000000000000 3.30980166733331 0.00000000000000
 0.00000000000000 0.00000000000000 3.30980166733331
# Cartesian coordinates in Angstrom.
PRIMCOORD
 4 1
N     0.00000000000000     0.00000000000000     0.00000000000000
O     1.65490083366665     0.00000000000000     0.00000000000000
O     0.00000000000000     1.65490083366665     0.00000000000000
O     0.00000000000000     0.00000000000000     1.65490083366665