CRYSTAL
# Primitive lattice vectors in Angstrom
PRIMVEC
 5.10264612909925 0.00000000000000 0.00000000000000
 -0.00000000000000 5.10264612909925 0.00000000000000
 0.00000000000000 0.00000000000000 5.10264612909925
# Cartesian coordinates in Angstrom.
PRIMCOORD
 14 1
Na     0.00000000000000     0.00000000000000     0.00000000000000
Na     2.55132306454963     2.55132306454963     0.00000000000000
Na     2.55132306454963     0.00000000000000     2.55132306454963
Na     0.00000000000000     2.55132306454963     2.55132306454963
O     2.55132306454963     0.00000000000000     0.00000000000000
O     0.00000000000000     2.55132306454963     0.00000000000000
O     0.00000000000000     0.00000000000000     2.55132306454963
O     2.55132306454963     2.55132306454963     2.55132306454963
O     3.82698459682444     3.82698459682444     1.27566153227481
O     3.82698459682444     1.27566153227481     3.82698459682444
O     1.27566153227481     3.82698459682444     3.82698459682444
O     3.82698459682444     1.27566153227481     1.27566153227481
O     1.27566153227481     3.82698459682444     1.27566153227481
O     1.27566153227481     1.27566153227481     3.82698459682444