CRYSTAL
# Primitive lattice vectors in Angstrom
PRIMVEC
 5.00698064821441 0.00000000000000 0.00000000000000
 -0.00000000000000 5.00698064821441 0.00000000000000
 0.00000000000000 0.00000000000000 5.00698064821441
# Cartesian coordinates in Angstrom.
PRIMCOORD
 10 1
Na     1.25174516205360     1.25174516205360     1.25174516205360
Na     3.75523548616081     3.75523548616081     1.25174516205360
Na     3.75523548616081     1.25174516205360     3.75523548616081
Na     1.25174516205360     3.75523548616081     3.75523548616081
O     2.50349032410721     0.00000000000000     0.00000000000000
O     0.00000000000000     2.50349032410721     0.00000000000000
O     0.00000000000000     0.00000000000000     2.50349032410721
O     2.50349032410721     2.50349032410721     0.00000000000000
O     2.50349032410721     0.00000000000000     2.50349032410721
O     0.00000000000000     2.50349032410721     2.50349032410721