CRYSTAL
# Primitive lattice vectors in Angstrom
PRIMVEC
 3.89630217174616 0.00000000000000 0.00000000000000
 -0.00000000000000 3.89630217174616 0.00000000000000
 0.00000000000000 0.00000000000000 3.89630217174616
# Cartesian coordinates in Angstrom.
PRIMCOORD
 4 1
Nb     0.00000000000000     0.00000000000000     0.00000000000000
O     1.94815108587307     0.00000000000000     0.00000000000000
O     0.00000000000000     1.94815108587307     0.00000000000000
O     0.00000000000000     0.00000000000000     1.94815108587307