CRYSTAL
# Primitive lattice vectors in Angstrom
PRIMVEC
 4.84961818393360 0.00000000000000 0.00000000000000
 -0.00000000000000 4.84961818393360 0.00000000000000
 0.00000000000000 0.00000000000000 4.84961818393360
# Cartesian coordinates in Angstrom.
PRIMCOORD
 10 1
Nb     1.21240454598340     1.21240454598340     1.21240454598340
Nb     3.63721363795020     3.63721363795020     1.21240454598340
Nb     3.63721363795020     1.21240454598340     3.63721363795020
Nb     1.21240454598340     3.63721363795020     3.63721363795020
O     2.42480909196680     0.00000000000000     0.00000000000000
O     0.00000000000000     2.42480909196680     0.00000000000000
O     0.00000000000000     0.00000000000000     2.42480909196680
O     2.42480909196680     2.42480909196680     0.00000000000000
O     2.42480909196680     0.00000000000000     2.42480909196680
O     0.00000000000000     2.42480909196680     2.42480909196680