CRYSTAL
# Primitive lattice vectors in Angstrom
PRIMVEC
 4.98948500938138 0.00000000000000 0.00000000000000
 -0.00000000000000 4.98948500938138 0.00000000000000
 0.00000000000000 0.00000000000000 4.98948500938138
# Cartesian coordinates in Angstrom.
PRIMCOORD
 14 1
Nb     0.00000000000000     0.00000000000000     0.00000000000000
Nb     2.49474250469069     2.49474250469069     0.00000000000000
Nb     2.49474250469069     0.00000000000000     2.49474250469069
Nb     0.00000000000000     2.49474250469069     2.49474250469069
O     2.49474250469069     0.00000000000000     0.00000000000000
O     0.00000000000000     2.49474250469069     0.00000000000000
O     0.00000000000000     0.00000000000000     2.49474250469069
O     2.49474250469069     2.49474250469069     2.49474250469069
O     3.74211375703604     3.74211375703604     1.24737125234535
O     3.74211375703604     1.24737125234535     3.74211375703604
O     1.24737125234535     3.74211375703604     3.74211375703604
O     3.74211375703604     1.24737125234535     1.24737125234535
O     1.24737125234535     3.74211375703604     1.24737125234535
O     1.24737125234535     1.24737125234535     3.74211375703604