CRYSTAL
# Primitive lattice vectors in Angstrom
PRIMVEC
 5.29611626708180 0.00000000000000 0.00000000000000
 -0.00000000000000 5.29611626708180 0.00000000000000
 0.00000000000000 0.00000000000000 5.29611626708180
# Cartesian coordinates in Angstrom.
PRIMCOORD
 14 1
Nd     0.00000000000000     0.00000000000000     0.00000000000000
Nd     2.64805813354090     2.64805813354090     0.00000000000000
Nd     2.64805813354090     0.00000000000000     2.64805813354090
Nd     0.00000000000000     2.64805813354090     2.64805813354090
O     2.64805813354090     0.00000000000000     0.00000000000000
O     0.00000000000000     2.64805813354090     0.00000000000000
O     0.00000000000000     0.00000000000000     2.64805813354090
O     2.64805813354090     2.64805813354090     2.64805813354090
O     3.97208720031135     3.97208720031135     1.32402906677045
O     3.97208720031135     1.32402906677045     3.97208720031135
O     1.32402906677045     3.97208720031135     3.97208720031135
O     3.97208720031135     1.32402906677045     1.32402906677045
O     1.32402906677045     3.97208720031135     1.32402906677045
O     1.32402906677045     1.32402906677045     3.97208720031135