CRYSTAL
# Primitive lattice vectors in Angstrom
PRIMVEC
 5.29095842204264 0.00000000000000 0.00000000000000
 -0.00000000000000 5.29095842204264 0.00000000000000
 0.00000000000000 0.00000000000000 5.29095842204264
# Cartesian coordinates in Angstrom.
PRIMCOORD
 10 1
Nd     1.32273960551066     1.32273960551066     1.32273960551066
Nd     3.96821881653198     3.96821881653198     1.32273960551066
Nd     3.96821881653198     1.32273960551066     3.96821881653198
Nd     1.32273960551066     3.96821881653198     3.96821881653198
O     2.64547921102132     0.00000000000000     0.00000000000000
O     0.00000000000000     2.64547921102132     0.00000000000000
O     0.00000000000000     0.00000000000000     2.64547921102132
O     2.64547921102132     2.64547921102132     0.00000000000000
O     2.64547921102132     0.00000000000000     2.64547921102132
O     0.00000000000000     2.64547921102132     2.64547921102132