CRYSTAL
# Primitive lattice vectors in Angstrom
PRIMVEC
 4.08578184980289 0.00000000000000 0.00000000000000
 -0.00000000000000 4.08578184980289 0.00000000000000
 0.00000000000000 0.00000000000000 4.08578184980289
# Cartesian coordinates in Angstrom.
PRIMCOORD
 4 1
Nd     0.00000000000000     0.00000000000000     0.00000000000000
O     2.04289092490144     0.00000000000000     0.00000000000000
O     0.00000000000000     2.04289092490144     0.00000000000000
O     0.00000000000000     0.00000000000000     2.04289092490144