CRYSTAL
# Primitive lattice vectors in Angstrom
PRIMVEC
 4.00998711061633 0.00000000000000 0.00000000000000
 -0.00000000000000 4.00998711061633 0.00000000000000
 0.00000000000000 0.00000000000000 4.00998711061633
# Cartesian coordinates in Angstrom.
PRIMCOORD
 4 1
Ne     0.00000000000000     0.00000000000000     0.00000000000000
O     2.00499355530816     0.00000000000000     0.00000000000000
O     0.00000000000000     2.00499355530816     0.00000000000000
O     0.00000000000000     0.00000000000000     2.00499355530816