CRYSTAL
# Primitive lattice vectors in Angstrom
PRIMVEC
 5.10341557266368 0.00000000000000 0.00000000000000
 -0.00000000000000 5.10341557266368 0.00000000000000
 0.00000000000000 0.00000000000000 5.10341557266368
# Cartesian coordinates in Angstrom.
PRIMCOORD
 10 1
Ne     1.27585389316592     1.27585389316592     1.27585389316592
Ne     3.82756167949776     3.82756167949776     1.27585389316592
Ne     3.82756167949776     1.27585389316592     3.82756167949776
Ne     1.27585389316592     3.82756167949776     3.82756167949776
O     2.55170778633184     0.00000000000000     0.00000000000000
O     0.00000000000000     2.55170778633184     0.00000000000000
O     0.00000000000000     0.00000000000000     2.55170778633184
O     2.55170778633184     2.55170778633184     0.00000000000000
O     2.55170778633184     0.00000000000000     2.55170778633184
O     0.00000000000000     2.55170778633184     2.55170778633184