CRYSTAL
# Primitive lattice vectors in Angstrom
PRIMVEC
 4.96121926985897 0.00000000000000 0.00000000000000
 -0.00000000000000 4.96121926985897 0.00000000000000
 0.00000000000000 0.00000000000000 4.96121926985897
# Cartesian coordinates in Angstrom.
PRIMCOORD
 14 1
Ne     0.00000000000000     0.00000000000000     0.00000000000000
Ne     2.48060963492948     2.48060963492948     0.00000000000000
Ne     2.48060963492948     0.00000000000000     2.48060963492948
Ne     0.00000000000000     2.48060963492948     2.48060963492948
O     2.48060963492948     0.00000000000000     0.00000000000000
O     0.00000000000000     2.48060963492948     0.00000000000000
O     0.00000000000000     0.00000000000000     2.48060963492948
O     2.48060963492948     2.48060963492948     2.48060963492948
O     3.72091445239423     3.72091445239423     1.24030481746474
O     3.72091445239423     1.24030481746474     3.72091445239423
O     1.24030481746474     3.72091445239423     3.72091445239423
O     3.72091445239423     1.24030481746474     1.24030481746474
O     1.24030481746474     3.72091445239423     1.24030481746474
O     1.24030481746474     1.24030481746474     3.72091445239423