CRYSTAL
# Primitive lattice vectors in Angstrom
PRIMVEC
 4.46523088946594 0.00000000000000 0.00000000000000
 -0.00000000000000 4.46523088946594 0.00000000000000
 0.00000000000000 0.00000000000000 4.46523088946594
# Cartesian coordinates in Angstrom.
PRIMCOORD
 10 1
Ni     1.11630772236648     1.11630772236648     1.11630772236648
Ni     3.34892316709946     3.34892316709946     1.11630772236648
Ni     3.34892316709946     1.11630772236648     3.34892316709946
Ni     1.11630772236648     3.34892316709946     3.34892316709946
O     2.23261544473297     0.00000000000000     0.00000000000000
O     0.00000000000000     2.23261544473297     0.00000000000000
O     0.00000000000000     0.00000000000000     2.23261544473297
O     2.23261544473297     2.23261544473297     0.00000000000000
O     2.23261544473297     0.00000000000000     2.23261544473297
O     0.00000000000000     2.23261544473297     2.23261544473297