CRYSTAL
# Primitive lattice vectors in Angstrom
PRIMVEC
 4.81523372274150 0.00000000000000 0.00000000000000
 -0.00000000000000 4.81523372274150 0.00000000000000
 0.00000000000000 0.00000000000000 4.81523372274150
# Cartesian coordinates in Angstrom.
PRIMCOORD
 14 1
Ni     0.00000000000000     0.00000000000000     0.00000000000000
Ni     2.40761686137075     2.40761686137075     0.00000000000000
Ni     2.40761686137075     0.00000000000000     2.40761686137075
Ni     0.00000000000000     2.40761686137075     2.40761686137075
O     2.40761686137075     0.00000000000000     0.00000000000000
O     0.00000000000000     2.40761686137075     0.00000000000000
O     0.00000000000000     0.00000000000000     2.40761686137075
O     2.40761686137075     2.40761686137075     2.40761686137075
O     3.61142529205613     3.61142529205613     1.20380843068538
O     3.61142529205613     1.20380843068538     3.61142529205613
O     1.20380843068538     3.61142529205613     3.61142529205613
O     3.61142529205613     1.20380843068538     1.20380843068538
O     1.20380843068538     3.61142529205613     1.20380843068538
O     1.20380843068538     1.20380843068538     3.61142529205613