CRYSTAL
# Primitive lattice vectors in Angstrom
PRIMVEC
 3.57644600683860 0.00000000000000 0.00000000000000
 -0.00000000000000 3.57644600683860 0.00000000000000
 0.00000000000000 0.00000000000000 3.57644600683860
# Cartesian coordinates in Angstrom.
PRIMCOORD
 4 1
Ni     0.00000000000000     0.00000000000000     0.00000000000000
O     1.78822300341930     0.00000000000000     0.00000000000000
O     0.00000000000000     1.78822300341930     0.00000000000000
O     0.00000000000000     0.00000000000000     1.78822300341930