CRYSTAL
# Primitive lattice vectors in Angstrom
PRIMVEC
 4.15190934825790 0.00000000000000 0.00000000000000
 -0.00000000000000 4.15190934825790 0.00000000000000
 0.00000000000000 0.00000000000000 4.15190934825790
# Cartesian coordinates in Angstrom.
PRIMCOORD
 4 1
No     0.00000000000000     0.00000000000000     0.00000000000000
O     2.07595467412894     0.00000000000000     0.00000000000000
O     0.00000000000000     2.07595467412894     0.00000000000000
O     0.00000000000000     0.00000000000000     2.07595467412894