CRYSTAL
# Primitive lattice vectors in Angstrom
PRIMVEC
 5.28365408292988 0.00000000000000 0.00000000000000
 -0.00000000000000 5.28365408292988 0.00000000000000
 0.00000000000000 0.00000000000000 5.28365408292988
# Cartesian coordinates in Angstrom.
PRIMCOORD
 10 1
No     1.32091352073247     1.32091352073247     1.32091352073247
No     3.96274056219741     3.96274056219741     1.32091352073247
No     3.96274056219741     1.32091352073247     3.96274056219741
No     1.32091352073247     3.96274056219741     3.96274056219741
O     2.64182704146494     0.00000000000000     0.00000000000000
O     0.00000000000000     2.64182704146494     0.00000000000000
O     0.00000000000000     0.00000000000000     2.64182704146494
O     2.64182704146494     2.64182704146494     0.00000000000000
O     2.64182704146494     0.00000000000000     2.64182704146494
O     0.00000000000000     2.64182704146494     2.64182704146494