CRYSTAL
# Primitive lattice vectors in Angstrom
PRIMVEC
 5.34455139674402 0.00000000000000 0.00000000000000
 -0.00000000000000 5.34455139674402 0.00000000000000
 0.00000000000000 0.00000000000000 5.34455139674402
# Cartesian coordinates in Angstrom.
PRIMCOORD
 14 1
No     0.00000000000000     0.00000000000000     0.00000000000000
No     2.67227569837201     2.67227569837201     0.00000000000000
No     2.67227569837201     0.00000000000000     2.67227569837201
No     0.00000000000000     2.67227569837201     2.67227569837201
O     2.67227569837201     0.00000000000000     0.00000000000000
O     0.00000000000000     2.67227569837201     0.00000000000000
O     0.00000000000000     0.00000000000000     2.67227569837201
O     2.67227569837201     2.67227569837201     2.67227569837201
O     4.00841354755801     4.00841354755801     1.33613784918600
O     4.00841354755801     1.33613784918600     4.00841354755801
O     1.33613784918600     4.00841354755801     4.00841354755801
O     4.00841354755801     1.33613784918600     1.33613784918600
O     1.33613784918600     4.00841354755801     1.33613784918600
O     1.33613784918600     1.33613784918600     4.00841354755801