CRYSTAL
# Primitive lattice vectors in Angstrom
PRIMVEC
 5.18210407310813 0.00000000000000 0.00000000000000
 -0.00000000000000 5.18210407310813 0.00000000000000
 0.00000000000000 0.00000000000000 5.18210407310813
# Cartesian coordinates in Angstrom.
PRIMCOORD
 10 1
Np     1.29552601827703     1.29552601827703     1.29552601827703
Np     3.88657805483110     3.88657805483110     1.29552601827703
Np     3.88657805483110     1.29552601827703     3.88657805483110
Np     1.29552601827703     3.88657805483110     3.88657805483110
O     2.59105203655407     0.00000000000000     0.00000000000000
O     0.00000000000000     2.59105203655407     0.00000000000000
O     0.00000000000000     0.00000000000000     2.59105203655407
O     2.59105203655407     2.59105203655407     0.00000000000000
O     2.59105203655407     0.00000000000000     2.59105203655407
O     0.00000000000000     2.59105203655407     2.59105203655407