CRYSTAL
# Primitive lattice vectors in Angstrom
PRIMVEC
 4.06266601341361 0.00000000000000 0.00000000000000
 -0.00000000000000 4.06266601341361 0.00000000000000
 0.00000000000000 0.00000000000000 4.06266601341361
# Cartesian coordinates in Angstrom.
PRIMCOORD
 4 1
Np     0.00000000000000     0.00000000000000     0.00000000000000
O     2.03133300670680     0.00000000000000     0.00000000000000
O     0.00000000000000     2.03133300670680     0.00000000000000
O     0.00000000000000     0.00000000000000     2.03133300670680