CRYSTAL
# Primitive lattice vectors in Angstrom
PRIMVEC
 5.20454114058344 0.00000000000000 0.00000000000000
 -0.00000000000000 5.20454114058344 0.00000000000000
 0.00000000000000 0.00000000000000 5.20454114058344
# Cartesian coordinates in Angstrom.
PRIMCOORD
 14 1
Np     0.00000000000000     0.00000000000000     0.00000000000000
Np     2.60227057029172     2.60227057029172     0.00000000000000
Np     2.60227057029172     0.00000000000000     2.60227057029172
Np     0.00000000000000     2.60227057029172     2.60227057029172
O     2.60227057029172     0.00000000000000     0.00000000000000
O     0.00000000000000     2.60227057029172     0.00000000000000
O     0.00000000000000     0.00000000000000     2.60227057029172
O     2.60227057029172     2.60227057029172     2.60227057029172
O     3.90340585543758     3.90340585543758     1.30113528514586
O     3.90340585543758     1.30113528514586     3.90340585543758
O     1.30113528514586     3.90340585543758     3.90340585543758
O     3.90340585543758     1.30113528514586     1.30113528514586
O     1.30113528514586     3.90340585543758     1.30113528514586
O     1.30113528514586     1.30113528514586     3.90340585543758