CRYSTAL
# Primitive lattice vectors in Angstrom
PRIMVEC
 4.72283895356520 0.00000000000000 0.00000000000000
 -0.00000000000000 4.72283895356520 0.00000000000000
 0.00000000000000 0.00000000000000 4.72283895356520
# Cartesian coordinates in Angstrom.
PRIMCOORD
 14 1
O     0.00000000000000     0.00000000000000     0.00000000000000
O     2.36141947678260     2.36141947678260     0.00000000000000
O     2.36141947678260     0.00000000000000     2.36141947678260
O     0.00000000000000     2.36141947678260     2.36141947678260
O     2.36141947678260     0.00000000000000     0.00000000000000
O     0.00000000000000     2.36141947678260     0.00000000000000
O     0.00000000000000     0.00000000000000     2.36141947678260
O     2.36141947678260     2.36141947678260     2.36141947678260
O     3.54212921517390     3.54212921517390     1.18070973839130
O     3.54212921517390     1.18070973839130     3.54212921517390
O     1.18070973839130     3.54212921517390     3.54212921517390
O     3.54212921517390     1.18070973839130     1.18070973839130
O     1.18070973839130     3.54212921517390     1.18070973839130
O     1.18070973839130     1.18070973839130     3.54212921517390