CRYSTAL
# Primitive lattice vectors in Angstrom
PRIMVEC
 4.45157856510183 0.00000000000000 0.00000000000000
 -0.00000000000000 4.45157856510183 0.00000000000000
 0.00000000000000 0.00000000000000 4.45157856510183
# Cartesian coordinates in Angstrom.
PRIMCOORD
 10 1
O     1.11289464127546     1.11289464127546     1.11289464127546
O     3.33868392382638     3.33868392382638     1.11289464127546
O     3.33868392382638     1.11289464127546     3.33868392382638
O     1.11289464127546     3.33868392382638     3.33868392382638
O     2.22578928255092     0.00000000000000     0.00000000000000
O     0.00000000000000     2.22578928255092     0.00000000000000
O     0.00000000000000     0.00000000000000     2.22578928255092
O     2.22578928255092     2.22578928255092     0.00000000000000
O     2.22578928255092     0.00000000000000     2.22578928255092
O     0.00000000000000     2.22578928255092     2.22578928255092