CRYSTAL
# Primitive lattice vectors in Angstrom
PRIMVEC
 3.43173135358748 0.00000000000000 0.00000000000000
 -0.00000000000000 3.43173135358748 0.00000000000000
 0.00000000000000 0.00000000000000 3.43173135358748
# Cartesian coordinates in Angstrom.
PRIMCOORD
 4 1
O     0.00000000000000     0.00000000000000     0.00000000000000
O     1.71586567679374     0.00000000000000     0.00000000000000
O     0.00000000000000     1.71586567679374     0.00000000000000
O     0.00000000000000     0.00000000000000     1.71586567679374