CRYSTAL
# Primitive lattice vectors in Angstrom
PRIMVEC
 4.69570988039573 0.00000000000000 0.00000000000000
 -0.00000000000000 4.69570988039573 0.00000000000000
 0.00000000000000 0.00000000000000 4.69570988039573
# Cartesian coordinates in Angstrom.
PRIMCOORD
 10 1
Os     1.17392747009893     1.17392747009893     1.17392747009893
Os     3.52178241029680     3.52178241029680     1.17392747009893
Os     3.52178241029680     1.17392747009893     3.52178241029680
Os     1.17392747009893     3.52178241029680     3.52178241029680
O     2.34785494019787     0.00000000000000     0.00000000000000
O     0.00000000000000     2.34785494019787     0.00000000000000
O     0.00000000000000     0.00000000000000     2.34785494019787
O     2.34785494019787     2.34785494019787     0.00000000000000
O     2.34785494019787     0.00000000000000     2.34785494019787
O     0.00000000000000     2.34785494019787     2.34785494019787