CRYSTAL
# Primitive lattice vectors in Angstrom
PRIMVEC
 3.70726046818389 0.00000000000000 0.00000000000000
 -0.00000000000000 3.70726046818389 0.00000000000000
 0.00000000000000 0.00000000000000 3.70726046818389
# Cartesian coordinates in Angstrom.
PRIMCOORD
 4 1
Os     0.00000000000000     0.00000000000000     0.00000000000000
O     1.85363023409194     0.00000000000000     0.00000000000000
O     0.00000000000000     1.85363023409194     0.00000000000000
O     0.00000000000000     0.00000000000000     1.85363023409194