CRYSTAL
# Primitive lattice vectors in Angstrom
PRIMVEC
 4.91453387097298 0.00000000000000 0.00000000000000
 -0.00000000000000 4.91453387097298 0.00000000000000
 0.00000000000000 0.00000000000000 4.91453387097298
# Cartesian coordinates in Angstrom.
PRIMCOORD
 14 1
Os     0.00000000000000     0.00000000000000     0.00000000000000
Os     2.45726693548649     2.45726693548649     0.00000000000000
Os     2.45726693548649     0.00000000000000     2.45726693548649
Os     0.00000000000000     2.45726693548649     2.45726693548649
O     2.45726693548649     0.00000000000000     0.00000000000000
O     0.00000000000000     2.45726693548649     0.00000000000000
O     0.00000000000000     0.00000000000000     2.45726693548649
O     2.45726693548649     2.45726693548649     2.45726693548649
O     3.68590040322974     3.68590040322974     1.22863346774325
O     3.68590040322974     1.22863346774325     3.68590040322974
O     1.22863346774325     3.68590040322974     3.68590040322974
O     3.68590040322974     1.22863346774325     1.22863346774325
O     1.22863346774325     3.68590040322974     1.22863346774325
O     1.22863346774325     1.22863346774325     3.68590040322974