CRYSTAL
# Primitive lattice vectors in Angstrom
PRIMVEC
 4.72782114724257 0.00000000000000 0.00000000000000
 -0.00000000000000 4.72782114724257 0.00000000000000
 0.00000000000000 0.00000000000000 4.72782114724257
# Cartesian coordinates in Angstrom.
PRIMCOORD
 10 1
P     1.18195528681064     1.18195528681064     1.18195528681064
P     3.54586586043193     3.54586586043193     1.18195528681064
P     3.54586586043193     1.18195528681064     3.54586586043193
P     1.18195528681064     3.54586586043193     3.54586586043193
O     2.36391057362129     0.00000000000000     0.00000000000000
O     0.00000000000000     2.36391057362129     0.00000000000000
O     0.00000000000000     0.00000000000000     2.36391057362129
O     2.36391057362129     2.36391057362129     0.00000000000000
O     2.36391057362129     0.00000000000000     2.36391057362129
O     0.00000000000000     2.36391057362129     2.36391057362129