CRYSTAL
# Primitive lattice vectors in Angstrom
PRIMVEC
 4.94104231365317 0.00000000000000 0.00000000000000
 -0.00000000000000 4.94104231365317 0.00000000000000
 0.00000000000000 0.00000000000000 4.94104231365317
# Cartesian coordinates in Angstrom.
PRIMCOORD
 14 1
P     0.00000000000000     0.00000000000000     0.00000000000000
P     2.47052115682658     2.47052115682658     0.00000000000000
P     2.47052115682658     0.00000000000000     2.47052115682658
P     0.00000000000000     2.47052115682658     2.47052115682658
O     2.47052115682658     0.00000000000000     0.00000000000000
O     0.00000000000000     2.47052115682658     0.00000000000000
O     0.00000000000000     0.00000000000000     2.47052115682658
O     2.47052115682658     2.47052115682658     2.47052115682658
O     3.70578173523987     3.70578173523987     1.23526057841329
O     3.70578173523987     1.23526057841329     3.70578173523987
O     1.23526057841329     3.70578173523987     3.70578173523987
O     3.70578173523987     1.23526057841329     1.23526057841329
O     1.23526057841329     3.70578173523987     1.23526057841329
O     1.23526057841329     1.23526057841329     3.70578173523987