CRYSTAL
# Primitive lattice vectors in Angstrom
PRIMVEC
 3.28480791695122 0.00000000000000 0.00000000000000
 -0.00000000000000 3.28480791695122 0.00000000000000
 0.00000000000000 0.00000000000000 3.28480791695122
# Cartesian coordinates in Angstrom.
PRIMCOORD
 4 1
P     0.00000000000000     0.00000000000000     0.00000000000000
O     1.64240395847561     0.00000000000000     0.00000000000000
O     0.00000000000000     1.64240395847561     0.00000000000000
O     0.00000000000000     0.00000000000000     1.64240395847561