CRYSTAL
# Primitive lattice vectors in Angstrom
PRIMVEC
 4.20012005166915 0.00000000000000 0.00000000000000
 -0.00000000000000 4.20012005166915 0.00000000000000
 0.00000000000000 0.00000000000000 4.20012005166915
# Cartesian coordinates in Angstrom.
PRIMCOORD
 4 1
Pa     0.00000000000000     0.00000000000000     0.00000000000000
O     2.10006002583457     0.00000000000000     0.00000000000000
O     0.00000000000000     2.10006002583457     0.00000000000000
O     0.00000000000000     0.00000000000000     2.10006002583457