CRYSTAL
# Primitive lattice vectors in Angstrom
PRIMVEC
 5.32676607705342 0.00000000000000 0.00000000000000
 -0.00000000000000 5.32676607705342 0.00000000000000
 0.00000000000000 0.00000000000000 5.32676607705342
# Cartesian coordinates in Angstrom.
PRIMCOORD
 14 1
Pa     0.00000000000000     0.00000000000000     0.00000000000000
Pa     2.66338303852671     2.66338303852671     0.00000000000000
Pa     2.66338303852671     0.00000000000000     2.66338303852671
Pa     0.00000000000000     2.66338303852671     2.66338303852671
O     2.66338303852671     0.00000000000000     0.00000000000000
O     0.00000000000000     2.66338303852671     0.00000000000000
O     0.00000000000000     0.00000000000000     2.66338303852671
O     2.66338303852671     2.66338303852671     2.66338303852671
O     3.99507455779007     3.99507455779007     1.33169151926336
O     3.99507455779007     1.33169151926336     3.99507455779007
O     1.33169151926336     3.99507455779007     3.99507455779007
O     3.99507455779007     1.33169151926336     1.33169151926336
O     1.33169151926336     3.99507455779007     1.33169151926336
O     1.33169151926336     1.33169151926336     3.99507455779007