CRYSTAL
# Primitive lattice vectors in Angstrom
PRIMVEC
 5.31052553733754 0.00000000000000 0.00000000000000
 -0.00000000000000 5.31052553733754 0.00000000000000
 0.00000000000000 0.00000000000000 5.31052553733754
# Cartesian coordinates in Angstrom.
PRIMCOORD
 10 1
Pa     1.32763138433438     1.32763138433438     1.32763138433438
Pa     3.98289415300316     3.98289415300316     1.32763138433438
Pa     3.98289415300316     1.32763138433438     3.98289415300316
Pa     1.32763138433438     3.98289415300316     3.98289415300316
O     2.65526276866877     0.00000000000000     0.00000000000000
O     0.00000000000000     2.65526276866877     0.00000000000000
O     0.00000000000000     0.00000000000000     2.65526276866877
O     2.65526276866877     2.65526276866877     0.00000000000000
O     2.65526276866877     0.00000000000000     2.65526276866877
O     0.00000000000000     2.65526276866877     2.65526276866877