CRYSTAL
# Primitive lattice vectors in Angstrom
PRIMVEC
 5.41761529534762 0.00000000000000 0.00000000000000
 -0.00000000000000 5.41761529534762 0.00000000000000
 0.00000000000000 0.00000000000000 5.41761529534762
# Cartesian coordinates in Angstrom.
PRIMCOORD
 10 1
Pb     1.35440382383690     1.35440382383690     1.35440382383690
Pb     4.06321147151072     4.06321147151072     1.35440382383690
Pb     4.06321147151072     1.35440382383690     4.06321147151072
Pb     1.35440382383690     4.06321147151072     4.06321147151072
O     2.70880764767382     0.00000000000000     0.00000000000000
O     0.00000000000000     2.70880764767382     0.00000000000000
O     0.00000000000000     0.00000000000000     2.70880764767382
O     2.70880764767382     2.70880764767382     0.00000000000000
O     2.70880764767382     0.00000000000000     2.70880764767382
O     0.00000000000000     2.70880764767382     2.70880764767382