CRYSTAL
# Primitive lattice vectors in Angstrom
PRIMVEC
 5.43105564492522 0.00000000000000 0.00000000000000
 -0.00000000000000 5.43105564492522 0.00000000000000
 0.00000000000000 0.00000000000000 5.43105564492522
# Cartesian coordinates in Angstrom.
PRIMCOORD
 14 1
Pb     0.00000000000000     0.00000000000000     0.00000000000000
Pb     2.71552782246261     2.71552782246261     0.00000000000000
Pb     2.71552782246261     0.00000000000000     2.71552782246261
Pb     0.00000000000000     2.71552782246261     2.71552782246261
O     2.71552782246261     0.00000000000000     0.00000000000000
O     0.00000000000000     2.71552782246261     0.00000000000000
O     0.00000000000000     0.00000000000000     2.71552782246261
O     2.71552782246261     2.71552782246261     2.71552782246261
O     4.07329173369391     4.07329173369391     1.35776391123130
O     4.07329173369391     1.35776391123130     4.07329173369391
O     1.35776391123130     4.07329173369391     4.07329173369391
O     4.07329173369391     1.35776391123130     1.35776391123130
O     1.35776391123130     4.07329173369391     1.35776391123130
O     1.35776391123130     1.35776391123130     4.07329173369391