CRYSTAL
# Primitive lattice vectors in Angstrom
PRIMVEC
 4.18517048018770 0.00000000000000 0.00000000000000
 -0.00000000000000 4.18517048018770 0.00000000000000
 0.00000000000000 0.00000000000000 4.18517048018770
# Cartesian coordinates in Angstrom.
PRIMCOORD
 4 1
Pb     0.00000000000000     0.00000000000000     0.00000000000000
O     2.09258524009385     0.00000000000000     0.00000000000000
O     0.00000000000000     2.09258524009385     0.00000000000000
O     0.00000000000000     0.00000000000000     2.09258524009385