CRYSTAL
# Primitive lattice vectors in Angstrom
PRIMVEC
 5.02513906874398 0.00000000000000 0.00000000000000
 -0.00000000000000 5.02513906874398 0.00000000000000
 0.00000000000000 0.00000000000000 5.02513906874398
# Cartesian coordinates in Angstrom.
PRIMCOORD
 14 1
Pd     0.00000000000000     0.00000000000000     0.00000000000000
Pd     2.51256953437199     2.51256953437199     0.00000000000000
Pd     2.51256953437199     0.00000000000000     2.51256953437199
Pd     0.00000000000000     2.51256953437199     2.51256953437199
O     2.51256953437199     0.00000000000000     0.00000000000000
O     0.00000000000000     2.51256953437199     0.00000000000000
O     0.00000000000000     0.00000000000000     2.51256953437199
O     2.51256953437199     2.51256953437199     2.51256953437199
O     3.76885430155798     3.76885430155798     1.25628476718599
O     3.76885430155798     1.25628476718599     3.76885430155798
O     1.25628476718599     3.76885430155798     3.76885430155798
O     3.76885430155798     1.25628476718599     1.25628476718599
O     1.25628476718599     3.76885430155798     1.25628476718599
O     1.25628476718599     1.25628476718599     3.76885430155798