CRYSTAL
# Primitive lattice vectors in Angstrom
PRIMVEC
 4.78771715995338 0.00000000000000 0.00000000000000
 -0.00000000000000 4.78771715995338 0.00000000000000
 0.00000000000000 0.00000000000000 4.78771715995338
# Cartesian coordinates in Angstrom.
PRIMCOORD
 10 1
Pd     1.19692928998834     1.19692928998834     1.19692928998834
Pd     3.59078786996504     3.59078786996504     1.19692928998834
Pd     3.59078786996504     1.19692928998834     3.59078786996504
Pd     1.19692928998834     3.59078786996504     3.59078786996504
O     2.39385857997669     0.00000000000000     0.00000000000000
O     0.00000000000000     2.39385857997669     0.00000000000000
O     0.00000000000000     0.00000000000000     2.39385857997669
O     2.39385857997669     2.39385857997669     0.00000000000000
O     2.39385857997669     0.00000000000000     2.39385857997669
O     0.00000000000000     2.39385857997669     2.39385857997669