CRYSTAL
# Primitive lattice vectors in Angstrom
PRIMVEC
 3.79405709733403 0.00000000000000 0.00000000000000
 -0.00000000000000 3.79405709733403 0.00000000000000
 0.00000000000000 0.00000000000000 3.79405709733403
# Cartesian coordinates in Angstrom.
PRIMCOORD
 4 1
Pd     0.00000000000000     0.00000000000000     0.00000000000000
O     1.89702854866701     0.00000000000000     0.00000000000000
O     0.00000000000000     1.89702854866701     0.00000000000000
O     0.00000000000000     0.00000000000000     1.89702854866701