CRYSTAL
# Primitive lattice vectors in Angstrom
PRIMVEC
 4.06482985537694 0.00000000000000 0.00000000000000
 -0.00000000000000 4.06482985537694 0.00000000000000
 0.00000000000000 0.00000000000000 4.06482985537694
# Cartesian coordinates in Angstrom.
PRIMCOORD
 4 1
Pm     0.00000000000000     0.00000000000000     0.00000000000000
O     2.03241492768846     0.00000000000000     0.00000000000000
O     0.00000000000000     2.03241492768846     0.00000000000000
O     0.00000000000000     0.00000000000000     2.03241492768846