CRYSTAL
# Primitive lattice vectors in Angstrom
PRIMVEC
 5.27932066233485 0.00000000000000 0.00000000000000
 -0.00000000000000 5.27932066233485 0.00000000000000
 0.00000000000000 0.00000000000000 5.27932066233485
# Cartesian coordinates in Angstrom.
PRIMCOORD
 14 1
Pm     0.00000000000000     0.00000000000000     0.00000000000000
Pm     2.63966033116743     2.63966033116743     0.00000000000000
Pm     2.63966033116743     0.00000000000000     2.63966033116743
Pm     0.00000000000000     2.63966033116743     2.63966033116743
O     2.63966033116743     0.00000000000000     0.00000000000000
O     0.00000000000000     2.63966033116743     0.00000000000000
O     0.00000000000000     0.00000000000000     2.63966033116743
O     2.63966033116743     2.63966033116743     2.63966033116743
O     3.95949049675114     3.95949049675114     1.31983016558371
O     3.95949049675114     1.31983016558371     3.95949049675114
O     1.31983016558371     3.95949049675114     3.95949049675114
O     3.95949049675114     1.31983016558371     1.31983016558371
O     1.31983016558371     3.95949049675114     1.31983016558371
O     1.31983016558371     1.31983016558371     3.95949049675114