CRYSTAL
# Primitive lattice vectors in Angstrom
PRIMVEC
 5.26394100429496 0.00000000000000 0.00000000000000
 -0.00000000000000 5.26394100429496 0.00000000000000
 0.00000000000000 0.00000000000000 5.26394100429496
# Cartesian coordinates in Angstrom.
PRIMCOORD
 10 1
Pm     1.31598525107374     1.31598525107374     1.31598525107374
Pm     3.94795575322122     3.94795575322122     1.31598525107374
Pm     3.94795575322122     1.31598525107374     3.94795575322122
Pm     1.31598525107374     3.94795575322122     3.94795575322122
O     2.63197050214748     0.00000000000000     0.00000000000000
O     0.00000000000000     2.63197050214748     0.00000000000000
O     0.00000000000000     0.00000000000000     2.63197050214748
O     2.63197050214748     2.63197050214748     0.00000000000000
O     2.63197050214748     0.00000000000000     2.63197050214748
O     0.00000000000000     2.63197050214748     2.63197050214748