CRYSTAL
# Primitive lattice vectors in Angstrom
PRIMVEC
 5.41907757278647 0.00000000000000 0.00000000000000
 -0.00000000000000 5.41907757278647 0.00000000000000
 0.00000000000000 0.00000000000000 5.41907757278647
# Cartesian coordinates in Angstrom.
PRIMCOORD
 10 1
Po     1.35476939319661     1.35476939319661     1.35476939319661
Po     4.06430817958985     4.06430817958985     1.35476939319661
Po     4.06430817958985     1.35476939319661     4.06430817958985
Po     1.35476939319661     4.06430817958985     4.06430817958985
O     2.70953878639324     0.00000000000000     0.00000000000000
O     0.00000000000000     2.70953878639324     0.00000000000000
O     0.00000000000000     0.00000000000000     2.70953878639324
O     2.70953878639324     2.70953878639324     0.00000000000000
O     2.70953878639324     0.00000000000000     2.70953878639324
O     0.00000000000000     2.70953878639324     2.70953878639324