CRYSTAL
# Primitive lattice vectors in Angstrom
PRIMVEC
 5.42484005586619 0.00000000000000 0.00000000000000
 -0.00000000000000 5.42484005586619 0.00000000000000
 0.00000000000000 0.00000000000000 5.42484005586619
# Cartesian coordinates in Angstrom.
PRIMCOORD
 14 1
Po     0.00000000000000     0.00000000000000     0.00000000000000
Po     2.71242002793310     2.71242002793310     0.00000000000000
Po     2.71242002793310     0.00000000000000     2.71242002793310
Po     0.00000000000000     2.71242002793310     2.71242002793310
O     2.71242002793310     0.00000000000000     0.00000000000000
O     0.00000000000000     2.71242002793310     0.00000000000000
O     0.00000000000000     0.00000000000000     2.71242002793310
O     2.71242002793310     2.71242002793310     2.71242002793310
O     4.06863004189964     4.06863004189964     1.35621001396655
O     4.06863004189964     1.35621001396655     4.06863004189964
O     1.35621001396655     4.06863004189964     4.06863004189964
O     4.06863004189964     1.35621001396655     1.35621001396655
O     1.35621001396655     4.06863004189964     1.35621001396655
O     1.35621001396655     1.35621001396655     4.06863004189964