CRYSTAL
# Primitive lattice vectors in Angstrom
PRIMVEC
 4.04549857097176 0.00000000000000 0.00000000000000
 -0.00000000000000 4.04549857097176 0.00000000000000
 0.00000000000000 0.00000000000000 4.04549857097176
# Cartesian coordinates in Angstrom.
PRIMCOORD
 4 1
Po     0.00000000000000     0.00000000000000     0.00000000000000
O     2.02274928548588     0.00000000000000     0.00000000000000
O     0.00000000000000     2.02274928548588     0.00000000000000
O     0.00000000000000     0.00000000000000     2.02274928548588