CRYSTAL
# Primitive lattice vectors in Angstrom
PRIMVEC
 5.32181784729899 0.00000000000000 0.00000000000000
 -0.00000000000000 5.32181784729899 0.00000000000000
 0.00000000000000 0.00000000000000 5.32181784729899
# Cartesian coordinates in Angstrom.
PRIMCOORD
 14 1
Pr     0.00000000000000     0.00000000000000     0.00000000000000
Pr     2.66090892364950     2.66090892364950     0.00000000000000
Pr     2.66090892364950     0.00000000000000     2.66090892364950
Pr     0.00000000000000     2.66090892364950     2.66090892364950
O     2.66090892364950     0.00000000000000     0.00000000000000
O     0.00000000000000     2.66090892364950     0.00000000000000
O     0.00000000000000     0.00000000000000     2.66090892364950
O     2.66090892364950     2.66090892364950     2.66090892364950
O     3.99136338547424     3.99136338547424     1.33045446182475
O     3.99136338547424     1.33045446182475     3.99136338547424
O     1.33045446182475     3.99136338547424     3.99136338547424
O     3.99136338547424     1.33045446182475     1.33045446182475
O     1.33045446182475     3.99136338547424     1.33045446182475
O     1.33045446182475     1.33045446182475     3.99136338547424