CRYSTAL
# Primitive lattice vectors in Angstrom
PRIMVEC
 5.32520607563074 0.00000000000000 0.00000000000000
 -0.00000000000000 5.32520607563074 0.00000000000000
 0.00000000000000 0.00000000000000 5.32520607563074
# Cartesian coordinates in Angstrom.
PRIMCOORD
 10 1
Pr     1.33130151890768     1.33130151890768     1.33130151890768
Pr     3.99390455672306     3.99390455672306     1.33130151890768
Pr     3.99390455672306     1.33130151890768     3.99390455672306
Pr     1.33130151890768     3.99390455672306     3.99390455672306
O     2.66260303781538     0.00000000000000     0.00000000000000
O     0.00000000000000     2.66260303781538     0.00000000000000
O     0.00000000000000     0.00000000000000     2.66260303781538
O     2.66260303781538     2.66260303781538     0.00000000000000
O     2.66260303781538     0.00000000000000     2.66260303781538
O     0.00000000000000     2.66260303781538     2.66260303781538