CRYSTAL
# Primitive lattice vectors in Angstrom
PRIMVEC
 4.14428251328274 0.00000000000000 0.00000000000000
 -0.00000000000000 4.14428251328274 0.00000000000000
 0.00000000000000 0.00000000000000 4.14428251328274
# Cartesian coordinates in Angstrom.
PRIMCOORD
 4 1
Pr     0.00000000000000     0.00000000000000     0.00000000000000
O     2.07214125664137     0.00000000000000     0.00000000000000
O     0.00000000000000     2.07214125664137     0.00000000000000
O     0.00000000000000     0.00000000000000     2.07214125664137