CRYSTAL
# Primitive lattice vectors in Angstrom
PRIMVEC
 3.77988162354802 0.00000000000000 0.00000000000000
 -0.00000000000000 3.77988162354802 0.00000000000000
 0.00000000000000 0.00000000000000 3.77988162354802
# Cartesian coordinates in Angstrom.
PRIMCOORD
 4 1
Pt     0.00000000000000     0.00000000000000     0.00000000000000
O     1.88994081177401     0.00000000000000     0.00000000000000
O     0.00000000000000     1.88994081177401     0.00000000000000
O     0.00000000000000     0.00000000000000     1.88994081177401