CRYSTAL
# Primitive lattice vectors in Angstrom
PRIMVEC
 4.84388998522332 0.00000000000000 0.00000000000000
 -0.00000000000000 4.84388998522332 0.00000000000000
 0.00000000000000 0.00000000000000 4.84388998522332
# Cartesian coordinates in Angstrom.
PRIMCOORD
 10 1
Pt     1.21097249630583     1.21097249630583     1.21097249630583
Pt     3.63291748891749     3.63291748891749     1.21097249630583
Pt     3.63291748891749     1.21097249630583     3.63291748891749
Pt     1.21097249630583     3.63291748891749     3.63291748891749
O     2.42194499261166     0.00000000000000     0.00000000000000
O     0.00000000000000     2.42194499261166     0.00000000000000
O     0.00000000000000     0.00000000000000     2.42194499261166
O     2.42194499261166     2.42194499261166     0.00000000000000
O     2.42194499261166     0.00000000000000     2.42194499261166
O     0.00000000000000     2.42194499261166     2.42194499261166