CRYSTAL
# Primitive lattice vectors in Angstrom
PRIMVEC
 5.04828392380448 0.00000000000000 0.00000000000000
 -0.00000000000000 5.04828392380448 0.00000000000000
 0.00000000000000 0.00000000000000 5.04828392380448
# Cartesian coordinates in Angstrom.
PRIMCOORD
 14 1
Pt     0.00000000000000     0.00000000000000     0.00000000000000
Pt     2.52414196190224     2.52414196190224     0.00000000000000
Pt     2.52414196190224     0.00000000000000     2.52414196190224
Pt     0.00000000000000     2.52414196190224     2.52414196190224
O     2.52414196190224     0.00000000000000     0.00000000000000
O     0.00000000000000     2.52414196190224     0.00000000000000
O     0.00000000000000     0.00000000000000     2.52414196190224
O     2.52414196190224     2.52414196190224     2.52414196190224
O     3.78621294285336     3.78621294285336     1.26207098095112
O     3.78621294285336     1.26207098095112     3.78621294285336
O     1.26207098095112     3.78621294285336     3.78621294285336
O     3.78621294285336     1.26207098095112     1.26207098095112
O     1.26207098095112     3.78621294285336     1.26207098095112
O     1.26207098095112     1.26207098095112     3.78621294285336