CRYSTAL
# Primitive lattice vectors in Angstrom
PRIMVEC
 5.18405924958843 0.00000000000000 0.00000000000000
 -0.00000000000000 5.18405924958843 0.00000000000000
 0.00000000000000 0.00000000000000 5.18405924958843
# Cartesian coordinates in Angstrom.
PRIMCOORD
 14 1
Pu     0.00000000000000     0.00000000000000     0.00000000000000
Pu     2.59202962479421     2.59202962479421     0.00000000000000
Pu     2.59202962479421     0.00000000000000     2.59202962479421
Pu     0.00000000000000     2.59202962479421     2.59202962479421
O     2.59202962479421     0.00000000000000     0.00000000000000
O     0.00000000000000     2.59202962479421     0.00000000000000
O     0.00000000000000     0.00000000000000     2.59202962479421
O     2.59202962479421     2.59202962479421     2.59202962479421
O     3.88804443719132     3.88804443719132     1.29601481239711
O     3.88804443719132     1.29601481239711     3.88804443719132
O     1.29601481239711     3.88804443719132     3.88804443719132
O     3.88804443719132     1.29601481239711     1.29601481239711
O     1.29601481239711     3.88804443719132     1.29601481239711
O     1.29601481239711     1.29601481239711     3.88804443719132