CRYSTAL
# Primitive lattice vectors in Angstrom
PRIMVEC
 4.03190565479631 0.00000000000000 0.00000000000000
 -0.00000000000000 4.03190565479631 0.00000000000000
 0.00000000000000 0.00000000000000 4.03190565479631
# Cartesian coordinates in Angstrom.
PRIMCOORD
 4 1
Pu     0.00000000000000     0.00000000000000     0.00000000000000
O     2.01595282739815     0.00000000000000     0.00000000000000
O     0.00000000000000     2.01595282739815     0.00000000000000
O     0.00000000000000     0.00000000000000     2.01595282739815