CRYSTAL
# Primitive lattice vectors in Angstrom
PRIMVEC
 5.15333312537365 0.00000000000000 0.00000000000000
 -0.00000000000000 5.15333312537365 0.00000000000000
 0.00000000000000 0.00000000000000 5.15333312537365
# Cartesian coordinates in Angstrom.
PRIMCOORD
 10 1
Pu     1.28833328134341     1.28833328134341     1.28833328134341
Pu     3.86499984403024     3.86499984403024     1.28833328134341
Pu     3.86499984403024     1.28833328134341     3.86499984403024
Pu     1.28833328134341     3.86499984403024     3.86499984403024
O     2.57666656268683     0.00000000000000     0.00000000000000
O     0.00000000000000     2.57666656268683     0.00000000000000
O     0.00000000000000     0.00000000000000     2.57666656268683
O     2.57666656268683     2.57666656268683     0.00000000000000
O     2.57666656268683     0.00000000000000     2.57666656268683
O     0.00000000000000     2.57666656268683     2.57666656268683