CRYSTAL
# Primitive lattice vectors in Angstrom
PRIMVEC
 6.11243285391000 0.00000000000000 0.00000000000000
 -0.00000000000000 6.11243285391000 0.00000000000000
 0.00000000000000 0.00000000000000 6.11243285391000
# Cartesian coordinates in Angstrom.
PRIMCOORD
 10 1
Ra     1.52810821347750     1.52810821347750     1.52810821347750
Ra     4.58432464043250     4.58432464043250     1.52810821347750
Ra     4.58432464043250     1.52810821347750     4.58432464043250
Ra     1.52810821347750     4.58432464043250     4.58432464043250
O     3.05621642695500     0.00000000000000     0.00000000000000
O     0.00000000000000     3.05621642695500     0.00000000000000
O     0.00000000000000     0.00000000000000     3.05621642695500
O     3.05621642695500     3.05621642695500     0.00000000000000
O     3.05621642695500     0.00000000000000     3.05621642695500
O     0.00000000000000     3.05621642695500     3.05621642695500