CRYSTAL
# Primitive lattice vectors in Angstrom
PRIMVEC
 5.98829637008161 0.00000000000000 0.00000000000000
 -0.00000000000000 5.98829637008161 0.00000000000000
 0.00000000000000 0.00000000000000 5.98829637008161
# Cartesian coordinates in Angstrom.
PRIMCOORD
 14 1
Ra     0.00000000000000     0.00000000000000     0.00000000000000
Ra     2.99414818504081     2.99414818504081     0.00000000000000
Ra     2.99414818504081     0.00000000000000     2.99414818504081
Ra     0.00000000000000     2.99414818504081     2.99414818504081
O     2.99414818504081     0.00000000000000     0.00000000000000
O     0.00000000000000     2.99414818504081     0.00000000000000
O     0.00000000000000     0.00000000000000     2.99414818504081
O     2.99414818504081     2.99414818504081     2.99414818504081
O     4.49122227756121     4.49122227756121     1.49707409252040
O     4.49122227756121     1.49707409252040     4.49122227756121
O     1.49707409252040     4.49122227756121     4.49122227756121
O     4.49122227756121     1.49707409252040     1.49707409252040
O     1.49707409252040     4.49122227756121     1.49707409252040
O     1.49707409252040     1.49707409252040     4.49122227756121