CRYSTAL
# Primitive lattice vectors in Angstrom
PRIMVEC
 6.07973245630192 0.00000000000000 0.00000000000000
 -0.00000000000000 6.07973245630192 0.00000000000000
 0.00000000000000 0.00000000000000 6.07973245630192
# Cartesian coordinates in Angstrom.
PRIMCOORD
 10 1
Rb     1.51993311407548     1.51993311407548     1.51993311407548
Rb     4.55979934222644     4.55979934222644     1.51993311407548
Rb     4.55979934222644     1.51993311407548     4.55979934222644
Rb     1.51993311407548     4.55979934222644     4.55979934222644
O     3.03986622815096     0.00000000000000     0.00000000000000
O     0.00000000000000     3.03986622815096     0.00000000000000
O     0.00000000000000     0.00000000000000     3.03986622815096
O     3.03986622815096     3.03986622815096     0.00000000000000
O     3.03986622815096     0.00000000000000     3.03986622815096
O     0.00000000000000     3.03986622815096     3.03986622815096