CRYSTAL
# Primitive lattice vectors in Angstrom
PRIMVEC
 5.78460043434158 0.00000000000000 0.00000000000000
 -0.00000000000000 5.78460043434158 0.00000000000000
 0.00000000000000 0.00000000000000 5.78460043434158
# Cartesian coordinates in Angstrom.
PRIMCOORD
 14 1
Rb     0.00000000000000     0.00000000000000     0.00000000000000
Rb     2.89230021717079     2.89230021717079     0.00000000000000
Rb     2.89230021717079     0.00000000000000     2.89230021717079
Rb     0.00000000000000     2.89230021717079     2.89230021717079
O     2.89230021717079     0.00000000000000     0.00000000000000
O     0.00000000000000     2.89230021717079     0.00000000000000
O     0.00000000000000     0.00000000000000     2.89230021717079
O     2.89230021717079     2.89230021717079     2.89230021717079
O     4.33845032575618     4.33845032575618     1.44615010858539
O     4.33845032575618     1.44615010858539     4.33845032575618
O     1.44615010858539     4.33845032575618     4.33845032575618
O     4.33845032575618     1.44615010858539     1.44615010858539
O     1.44615010858539     4.33845032575618     1.44615010858539
O     1.44615010858539     1.44615010858539     4.33845032575618