CRYSTAL
# Primitive lattice vectors in Angstrom
PRIMVEC
 4.27576049760517 0.00000000000000 0.00000000000000
 -0.00000000000000 4.27576049760517 0.00000000000000
 0.00000000000000 0.00000000000000 4.27576049760517
# Cartesian coordinates in Angstrom.
PRIMCOORD
 4 1
Rb     0.00000000000000     0.00000000000000     0.00000000000000
O     2.13788024880258     0.00000000000000     0.00000000000000
O     0.00000000000000     2.13788024880258     0.00000000000000
O     0.00000000000000     0.00000000000000     2.13788024880258