CRYSTAL
# Primitive lattice vectors in Angstrom
PRIMVEC
 4.71843187040446 0.00000000000000 0.00000000000000
 -0.00000000000000 4.71843187040446 0.00000000000000
 0.00000000000000 0.00000000000000 4.71843187040446
# Cartesian coordinates in Angstrom.
PRIMCOORD
 10 1
Re     1.17960796760111     1.17960796760111     1.17960796760111
Re     3.53882390280335     3.53882390280335     1.17960796760111
Re     3.53882390280335     1.17960796760111     3.53882390280335
Re     1.17960796760111     3.53882390280335     3.53882390280335
O     2.35921593520223     0.00000000000000     0.00000000000000
O     0.00000000000000     2.35921593520223     0.00000000000000
O     0.00000000000000     0.00000000000000     2.35921593520223
O     2.35921593520223     2.35921593520223     0.00000000000000
O     2.35921593520223     0.00000000000000     2.35921593520223
O     0.00000000000000     2.35921593520223     2.35921593520223