CRYSTAL
# Primitive lattice vectors in Angstrom
PRIMVEC
 4.89649003204237 0.00000000000000 0.00000000000000
 -0.00000000000000 4.89649003204237 0.00000000000000
 0.00000000000000 0.00000000000000 4.89649003204237
# Cartesian coordinates in Angstrom.
PRIMCOORD
 14 1
Re     0.00000000000000     0.00000000000000     0.00000000000000
Re     2.44824501602118     2.44824501602118     0.00000000000000
Re     2.44824501602118     0.00000000000000     2.44824501602118
Re     0.00000000000000     2.44824501602118     2.44824501602118
O     2.44824501602118     0.00000000000000     0.00000000000000
O     0.00000000000000     2.44824501602118     0.00000000000000
O     0.00000000000000     0.00000000000000     2.44824501602118
O     2.44824501602118     2.44824501602118     2.44824501602118
O     3.67236752403177     3.67236752403177     1.22412250801059
O     3.67236752403177     1.22412250801059     3.67236752403177
O     1.22412250801059     3.67236752403177     3.67236752403177
O     3.67236752403177     1.22412250801059     1.22412250801059
O     1.22412250801059     3.67236752403177     1.22412250801059
O     1.22412250801059     1.22412250801059     3.67236752403177