CRYSTAL
# Primitive lattice vectors in Angstrom
PRIMVEC
 3.72318196221993 0.00000000000000 0.00000000000000
 -0.00000000000000 3.72318196221993 0.00000000000000
 0.00000000000000 0.00000000000000 3.72318196221993
# Cartesian coordinates in Angstrom.
PRIMCOORD
 4 1
Re     0.00000000000000     0.00000000000000     0.00000000000000
O     1.86159098110996     0.00000000000000     0.00000000000000
O     0.00000000000000     1.86159098110996     0.00000000000000
O     0.00000000000000     0.00000000000000     1.86159098110996