CRYSTAL
# Primitive lattice vectors in Angstrom
PRIMVEC
 3.71031273618477 0.00000000000000 0.00000000000000
 -0.00000000000000 3.71031273618477 0.00000000000000
 0.00000000000000 0.00000000000000 3.71031273618477
# Cartesian coordinates in Angstrom.
PRIMCOORD
 4 1
Rh     0.00000000000000     0.00000000000000     0.00000000000000
O     1.85515636809238     0.00000000000000     0.00000000000000
O     0.00000000000000     1.85515636809238     0.00000000000000
O     0.00000000000000     0.00000000000000     1.85515636809238