CRYSTAL
# Primitive lattice vectors in Angstrom
PRIMVEC
 4.67141939541888 0.00000000000000 0.00000000000000
 -0.00000000000000 4.67141939541888 0.00000000000000
 0.00000000000000 0.00000000000000 4.67141939541888
# Cartesian coordinates in Angstrom.
PRIMCOORD
 10 1
Rh     1.16785484885472     1.16785484885472     1.16785484885472
Rh     3.50356454656416     3.50356454656416     1.16785484885472
Rh     3.50356454656416     1.16785484885472     3.50356454656416
Rh     1.16785484885472     3.50356454656416     3.50356454656416
O     2.33570969770944     0.00000000000000     0.00000000000000
O     0.00000000000000     2.33570969770944     0.00000000000000
O     0.00000000000000     0.00000000000000     2.33570969770944
O     2.33570969770944     2.33570969770944     0.00000000000000
O     2.33570969770944     0.00000000000000     2.33570969770944
O     0.00000000000000     2.33570969770944     2.33570969770944