CRYSTAL
# Primitive lattice vectors in Angstrom
PRIMVEC
 4.95166517302138 0.00000000000000 0.00000000000000
 -0.00000000000000 4.95166517302138 0.00000000000000
 0.00000000000000 0.00000000000000 4.95166517302138
# Cartesian coordinates in Angstrom.
PRIMCOORD
 14 1
Rh     0.00000000000000     0.00000000000000     0.00000000000000
Rh     2.47583258651069     2.47583258651069     0.00000000000000
Rh     2.47583258651069     0.00000000000000     2.47583258651069
Rh     0.00000000000000     2.47583258651069     2.47583258651069
O     2.47583258651069     0.00000000000000     0.00000000000000
O     0.00000000000000     2.47583258651069     0.00000000000000
O     0.00000000000000     0.00000000000000     2.47583258651069
O     2.47583258651069     2.47583258651069     2.47583258651069
O     3.71374887976604     3.71374887976604     1.23791629325535
O     3.71374887976604     1.23791629325535     3.71374887976604
O     1.23791629325535     3.71374887976604     3.71374887976604
O     3.71374887976604     1.23791629325535     1.23791629325535
O     1.23791629325535     3.71374887976604     1.23791629325535
O     1.23791629325535     1.23791629325535     3.71374887976604