CRYSTAL
# Primitive lattice vectors in Angstrom
PRIMVEC
 5.69841791661901 0.00000000000000 0.00000000000000
 -0.00000000000000 5.69841791661901 0.00000000000000
 0.00000000000000 0.00000000000000 5.69841791661901
# Cartesian coordinates in Angstrom.
PRIMCOORD
 10 1
Rn     1.42460447915475     1.42460447915475     1.42460447915475
Rn     4.27381343746426     4.27381343746426     1.42460447915475
Rn     4.27381343746426     1.42460447915475     4.27381343746426
Rn     1.42460447915475     4.27381343746426     4.27381343746426
O     2.84920895830951     0.00000000000000     0.00000000000000
O     0.00000000000000     2.84920895830951     0.00000000000000
O     0.00000000000000     0.00000000000000     2.84920895830951
O     2.84920895830951     2.84920895830951     0.00000000000000
O     2.84920895830951     0.00000000000000     2.84920895830951
O     0.00000000000000     2.84920895830951     2.84920895830951