CRYSTAL
# Primitive lattice vectors in Angstrom
PRIMVEC
 4.09600586665988 0.00000000000000 0.00000000000000
 -0.00000000000000 4.09600586665988 0.00000000000000
 0.00000000000000 0.00000000000000 4.09600586665988
# Cartesian coordinates in Angstrom.
PRIMCOORD
 4 1
Rn     0.00000000000000     0.00000000000000     0.00000000000000
O     2.04800293332994     0.00000000000000     0.00000000000000
O     0.00000000000000     2.04800293332994     0.00000000000000
O     0.00000000000000     0.00000000000000     2.04800293332994