CRYSTAL
# Primitive lattice vectors in Angstrom
PRIMVEC
 5.50305458579389 0.00000000000000 0.00000000000000
 -0.00000000000000 5.50305458579389 0.00000000000000
 0.00000000000000 0.00000000000000 5.50305458579389
# Cartesian coordinates in Angstrom.
PRIMCOORD
 14 1
Rn     0.00000000000000     0.00000000000000     0.00000000000000
Rn     2.75152729289694     2.75152729289694     0.00000000000000
Rn     2.75152729289694     0.00000000000000     2.75152729289694
Rn     0.00000000000000     2.75152729289694     2.75152729289694
O     2.75152729289694     0.00000000000000     0.00000000000000
O     0.00000000000000     2.75152729289694     0.00000000000000
O     0.00000000000000     0.00000000000000     2.75152729289694
O     2.75152729289694     2.75152729289694     2.75152729289694
O     4.12729093934542     4.12729093934542     1.37576364644847
O     4.12729093934542     1.37576364644847     4.12729093934542
O     1.37576364644847     4.12729093934542     4.12729093934542
O     4.12729093934542     1.37576364644847     1.37576364644847
O     1.37576364644847     4.12729093934542     1.37576364644847
O     1.37576364644847     1.37576364644847     4.12729093934542