CRYSTAL
# Primitive lattice vectors in Angstrom
PRIMVEC
 3.68420192888390 0.00000000000000 0.00000000000000
 -0.00000000000000 3.68420192888390 0.00000000000000
 0.00000000000000 0.00000000000000 3.68420192888390
# Cartesian coordinates in Angstrom.
PRIMCOORD
 4 1
Ru     0.00000000000000     0.00000000000000     0.00000000000000
O     1.84210096444195     0.00000000000000     0.00000000000000
O     0.00000000000000     1.84210096444195     0.00000000000000
O     0.00000000000000     0.00000000000000     1.84210096444195