CRYSTAL
# Primitive lattice vectors in Angstrom
PRIMVEC
 4.65711193195406 0.00000000000000 0.00000000000000
 -0.00000000000000 4.65711193195406 0.00000000000000
 0.00000000000000 0.00000000000000 4.65711193195406
# Cartesian coordinates in Angstrom.
PRIMCOORD
 10 1
Ru     1.16427798298851     1.16427798298851     1.16427798298851
Ru     3.49283394896555     3.49283394896555     1.16427798298851
Ru     3.49283394896555     1.16427798298851     3.49283394896555
Ru     1.16427798298851     3.49283394896555     3.49283394896555
O     2.32855596597703     0.00000000000000     0.00000000000000
O     0.00000000000000     2.32855596597703     0.00000000000000
O     0.00000000000000     0.00000000000000     2.32855596597703
O     2.32855596597703     2.32855596597703     0.00000000000000
O     2.32855596597703     0.00000000000000     2.32855596597703
O     0.00000000000000     2.32855596597703     2.32855596597703