CRYSTAL
# Primitive lattice vectors in Angstrom
PRIMVEC
 4.90596124615886 0.00000000000000 0.00000000000000
 -0.00000000000000 4.90596124615886 0.00000000000000
 0.00000000000000 0.00000000000000 4.90596124615886
# Cartesian coordinates in Angstrom.
PRIMCOORD
 14 1
Ru     0.00000000000000     0.00000000000000     0.00000000000000
Ru     2.45298062307943     2.45298062307943     0.00000000000000
Ru     2.45298062307943     0.00000000000000     2.45298062307943
Ru     0.00000000000000     2.45298062307943     2.45298062307943
O     2.45298062307943     0.00000000000000     0.00000000000000
O     0.00000000000000     2.45298062307943     0.00000000000000
O     0.00000000000000     0.00000000000000     2.45298062307943
O     2.45298062307943     2.45298062307943     2.45298062307943
O     3.67947093461915     3.67947093461915     1.22649031153972
O     3.67947093461915     1.22649031153972     3.67947093461915
O     1.22649031153972     3.67947093461915     3.67947093461915
O     3.67947093461915     1.22649031153972     1.22649031153972
O     1.22649031153972     3.67947093461915     1.22649031153972
O     1.22649031153972     1.22649031153972     3.67947093461915