CRYSTAL
# Primitive lattice vectors in Angstrom
PRIMVEC
 4.78431148630554 0.00000000000000 0.00000000000000
 -0.00000000000000 4.78431148630554 0.00000000000000
 0.00000000000000 0.00000000000000 4.78431148630554
# Cartesian coordinates in Angstrom.
PRIMCOORD
 10 1
S     1.19607787157638     1.19607787157638     1.19607787157638
S     3.58823361472915     3.58823361472915     1.19607787157638
S     3.58823361472915     1.19607787157638     3.58823361472915
S     1.19607787157638     3.58823361472915     3.58823361472915
O     2.39215574315277     0.00000000000000     0.00000000000000
O     0.00000000000000     2.39215574315277     0.00000000000000
O     0.00000000000000     0.00000000000000     2.39215574315277
O     2.39215574315277     2.39215574315277     0.00000000000000
O     2.39215574315277     0.00000000000000     2.39215574315277
O     0.00000000000000     2.39215574315277     2.39215574315277