CRYSTAL
# Primitive lattice vectors in Angstrom
PRIMVEC
 4.98262507323345 0.00000000000000 0.00000000000000
 -0.00000000000000 4.98262507323345 0.00000000000000
 0.00000000000000 0.00000000000000 4.98262507323345
# Cartesian coordinates in Angstrom.
PRIMCOORD
 14 1
S     0.00000000000000     0.00000000000000     0.00000000000000
S     2.49131253661673     2.49131253661673     0.00000000000000
S     2.49131253661673     0.00000000000000     2.49131253661673
S     0.00000000000000     2.49131253661673     2.49131253661673
O     2.49131253661673     0.00000000000000     0.00000000000000
O     0.00000000000000     2.49131253661673     0.00000000000000
O     0.00000000000000     0.00000000000000     2.49131253661673
O     2.49131253661673     2.49131253661673     2.49131253661673
O     3.73696880492509     3.73696880492509     1.24565626830836
O     3.73696880492509     1.24565626830836     3.73696880492509
O     1.24565626830836     3.73696880492509     3.73696880492509
O     3.73696880492509     1.24565626830836     1.24565626830836
O     1.24565626830836     3.73696880492509     1.24565626830836
O     1.24565626830836     1.24565626830836     3.73696880492509