CRYSTAL
# Primitive lattice vectors in Angstrom
PRIMVEC
 3.31161285087173 0.00000000000000 0.00000000000000
 -0.00000000000000 3.31161285087173 0.00000000000000
 0.00000000000000 0.00000000000000 3.31161285087173
# Cartesian coordinates in Angstrom.
PRIMCOORD
 4 1
S     0.00000000000000     0.00000000000000     0.00000000000000
O     1.65580642543586     0.00000000000000     0.00000000000000
O     0.00000000000000     1.65580642543586     0.00000000000000
O     0.00000000000000     0.00000000000000     1.65580642543586