CRYSTAL
# Primitive lattice vectors in Angstrom
PRIMVEC
 5.26590407942873 0.00000000000000 0.00000000000000
 -0.00000000000000 5.26590407942873 0.00000000000000
 0.00000000000000 0.00000000000000 5.26590407942873
# Cartesian coordinates in Angstrom.
PRIMCOORD
 14 1
Sb     0.00000000000000     0.00000000000000     0.00000000000000
Sb     2.63295203971437     2.63295203971437     0.00000000000000
Sb     2.63295203971437     0.00000000000000     2.63295203971437
Sb     0.00000000000000     2.63295203971437     2.63295203971437
O     2.63295203971437     0.00000000000000     0.00000000000000
O     0.00000000000000     2.63295203971437     0.00000000000000
O     0.00000000000000     0.00000000000000     2.63295203971437
O     2.63295203971437     2.63295203971437     2.63295203971437
O     3.94942805957155     3.94942805957155     1.31647601985718
O     3.94942805957155     1.31647601985718     3.94942805957155
O     1.31647601985718     3.94942805957155     3.94942805957155
O     3.94942805957155     1.31647601985718     1.31647601985718
O     1.31647601985718     3.94942805957155     1.31647601985718
O     1.31647601985718     1.31647601985718     3.94942805957155