CRYSTAL
# Primitive lattice vectors in Angstrom
PRIMVEC
 5.27976412599369 0.00000000000000 0.00000000000000
 -0.00000000000000 5.27976412599369 0.00000000000000
 0.00000000000000 0.00000000000000 5.27976412599369
# Cartesian coordinates in Angstrom.
PRIMCOORD
 10 1
Sb     1.31994103149842     1.31994103149842     1.31994103149842
Sb     3.95982309449527     3.95982309449527     1.31994103149842
Sb     3.95982309449527     1.31994103149842     3.95982309449527
Sb     1.31994103149842     3.95982309449527     3.95982309449527
O     2.63988206299685     0.00000000000000     0.00000000000000
O     0.00000000000000     2.63988206299685     0.00000000000000
O     0.00000000000000     0.00000000000000     2.63988206299685
O     2.63988206299685     2.63988206299685     0.00000000000000
O     2.63988206299685     0.00000000000000     2.63988206299685
O     0.00000000000000     2.63988206299685     2.63988206299685