CRYSTAL
# Primitive lattice vectors in Angstrom
PRIMVEC
 3.85294253307016 0.00000000000000 0.00000000000000
 -0.00000000000000 3.85294253307016 0.00000000000000
 0.00000000000000 0.00000000000000 3.85294253307016
# Cartesian coordinates in Angstrom.
PRIMCOORD
 4 1
Sb     0.00000000000000     0.00000000000000     0.00000000000000
O     1.92647126653508     0.00000000000000     0.00000000000000
O     0.00000000000000     1.92647126653508     0.00000000000000
O     0.00000000000000     0.00000000000000     1.92647126653508