CRYSTAL
# Primitive lattice vectors in Angstrom
PRIMVEC
 5.09887658984793 0.00000000000000 0.00000000000000
 -0.00000000000000 5.09887658984793 0.00000000000000
 0.00000000000000 0.00000000000000 5.09887658984793
# Cartesian coordinates in Angstrom.
PRIMCOORD
 14 1
Sc     0.00000000000000     0.00000000000000     0.00000000000000
Sc     2.54943829492397     2.54943829492397     0.00000000000000
Sc     2.54943829492397     0.00000000000000     2.54943829492397
Sc     0.00000000000000     2.54943829492397     2.54943829492397
O     2.54943829492397     0.00000000000000     0.00000000000000
O     0.00000000000000     2.54943829492397     0.00000000000000
O     0.00000000000000     0.00000000000000     2.54943829492397
O     2.54943829492397     2.54943829492397     2.54943829492397
O     3.82415744238595     3.82415744238595     1.27471914746198
O     3.82415744238595     1.27471914746198     3.82415744238595
O     1.27471914746198     3.82415744238595     3.82415744238595
O     3.82415744238595     1.27471914746198     1.27471914746198
O     1.27471914746198     3.82415744238595     1.27471914746198
O     1.27471914746198     1.27471914746198     3.82415744238595