CRYSTAL
# Primitive lattice vectors in Angstrom
PRIMVEC
 4.03795161826097 0.00000000000000 0.00000000000000
 -0.00000000000000 4.03795161826097 0.00000000000000
 0.00000000000000 0.00000000000000 4.03795161826097
# Cartesian coordinates in Angstrom.
PRIMCOORD
 4 1
Sc     0.00000000000000     0.00000000000000     0.00000000000000
O     2.01897580913048     0.00000000000000     0.00000000000000
O     0.00000000000000     2.01897580913048     0.00000000000000
O     0.00000000000000     0.00000000000000     2.01897580913048