CRYSTAL
# Primitive lattice vectors in Angstrom
PRIMVEC
 4.88783825452637 0.00000000000000 0.00000000000000
 -0.00000000000000 4.88783825452637 0.00000000000000
 0.00000000000000 0.00000000000000 4.88783825452637
# Cartesian coordinates in Angstrom.
PRIMCOORD
 10 1
Sc     1.22195956363159     1.22195956363159     1.22195956363159
Sc     3.66587869089478     3.66587869089478     1.22195956363159
Sc     3.66587869089478     1.22195956363159     3.66587869089478
Sc     1.22195956363159     3.66587869089478     3.66587869089478
O     2.44391912726319     0.00000000000000     0.00000000000000
O     0.00000000000000     2.44391912726319     0.00000000000000
O     0.00000000000000     0.00000000000000     2.44391912726319
O     2.44391912726319     2.44391912726319     0.00000000000000
O     2.44391912726319     0.00000000000000     2.44391912726319
O     0.00000000000000     2.44391912726319     2.44391912726319