CRYSTAL
# Primitive lattice vectors in Angstrom
PRIMVEC
 4.98414588493742 0.00000000000000 0.00000000000000
 -0.00000000000000 4.98414588493742 0.00000000000000
 0.00000000000000 0.00000000000000 4.98414588493742
# Cartesian coordinates in Angstrom.
PRIMCOORD
 10 1
Se     1.24603647123435     1.24603647123435     1.24603647123435
Se     3.73810941370307     3.73810941370307     1.24603647123435
Se     3.73810941370307     1.24603647123435     3.73810941370307
Se     1.24603647123435     3.73810941370307     3.73810941370307
O     2.49207294246871     0.00000000000000     0.00000000000000
O     0.00000000000000     2.49207294246871     0.00000000000000
O     0.00000000000000     0.00000000000000     2.49207294246871
O     2.49207294246871     2.49207294246871     0.00000000000000
O     2.49207294246871     0.00000000000000     2.49207294246871
O     0.00000000000000     2.49207294246871     2.49207294246871