CRYSTAL
# Primitive lattice vectors in Angstrom
PRIMVEC
 3.58932741899402 0.00000000000000 0.00000000000000
 -0.00000000000000 3.58932741899402 0.00000000000000
 0.00000000000000 0.00000000000000 3.58932741899402
# Cartesian coordinates in Angstrom.
PRIMCOORD
 4 1
Se     0.00000000000000     0.00000000000000     0.00000000000000
O     1.79466370949701     0.00000000000000     0.00000000000000
O     0.00000000000000     1.79466370949701     0.00000000000000
O     0.00000000000000     0.00000000000000     1.79466370949701