CRYSTAL
# Primitive lattice vectors in Angstrom
PRIMVEC
 5.11003936249885 0.00000000000000 0.00000000000000
 -0.00000000000000 5.11003936249885 0.00000000000000
 0.00000000000000 0.00000000000000 5.11003936249885
# Cartesian coordinates in Angstrom.
PRIMCOORD
 14 1
Se     0.00000000000000     0.00000000000000     0.00000000000000
Se     2.55501968124943     2.55501968124943     0.00000000000000
Se     2.55501968124943     0.00000000000000     2.55501968124943
Se     0.00000000000000     2.55501968124943     2.55501968124943
O     2.55501968124943     0.00000000000000     0.00000000000000
O     0.00000000000000     2.55501968124943     0.00000000000000
O     0.00000000000000     0.00000000000000     2.55501968124943
O     2.55501968124943     2.55501968124943     2.55501968124943
O     3.83252952187414     3.83252952187414     1.27750984062471
O     3.83252952187414     1.27750984062471     3.83252952187414
O     1.27750984062471     3.83252952187414     3.83252952187414
O     3.83252952187414     1.27750984062471     1.27750984062471
O     1.27750984062471     3.83252952187414     1.27750984062471
O     1.27750984062471     1.27750984062471     3.83252952187414