CRYSTAL
# Primitive lattice vectors in Angstrom
PRIMVEC
 4.84846505446468 0.00000000000000 0.00000000000000
 -0.00000000000000 4.84846505446468 0.00000000000000
 0.00000000000000 0.00000000000000 4.84846505446468
# Cartesian coordinates in Angstrom.
PRIMCOORD
 14 1
Si     0.00000000000000     0.00000000000000     0.00000000000000
Si     2.42423252723234     2.42423252723234     0.00000000000000
Si     2.42423252723234     0.00000000000000     2.42423252723234
Si     0.00000000000000     2.42423252723234     2.42423252723234
O     2.42423252723234     0.00000000000000     0.00000000000000
O     0.00000000000000     2.42423252723234     0.00000000000000
O     0.00000000000000     0.00000000000000     2.42423252723234
O     2.42423252723234     2.42423252723234     2.42423252723234
O     3.63634879084851     3.63634879084851     1.21211626361617
O     3.63634879084851     1.21211626361617     3.63634879084851
O     1.21211626361617     3.63634879084851     3.63634879084851
O     3.63634879084851     1.21211626361617     1.21211626361617
O     1.21211626361617     3.63634879084851     1.21211626361617
O     1.21211626361617     1.21211626361617     3.63634879084851