CRYSTAL
# Primitive lattice vectors in Angstrom
PRIMVEC
 4.51329383047687 0.00000000000000 0.00000000000000
 -0.00000000000000 4.51329383047687 0.00000000000000
 0.00000000000000 0.00000000000000 4.51329383047687
# Cartesian coordinates in Angstrom.
PRIMCOORD
 10 1
Si     1.12832345761921     1.12832345761921     1.12832345761921
Si     3.38497037285765     3.38497037285765     1.12832345761921
Si     3.38497037285765     1.12832345761921     3.38497037285765
Si     1.12832345761921     3.38497037285765     3.38497037285765
O     2.25664691523844     0.00000000000000     0.00000000000000
O     0.00000000000000     2.25664691523844     0.00000000000000
O     0.00000000000000     0.00000000000000     2.25664691523844
O     2.25664691523844     2.25664691523844     0.00000000000000
O     2.25664691523844     0.00000000000000     2.25664691523844
O     0.00000000000000     2.25664691523844     2.25664691523844