CRYSTAL
# Primitive lattice vectors in Angstrom
PRIMVEC
 3.41322366151296 0.00000000000000 0.00000000000000
 -0.00000000000000 3.41322366151296 0.00000000000000
 0.00000000000000 0.00000000000000 3.41322366151296
# Cartesian coordinates in Angstrom.
PRIMCOORD
 4 1
Si     0.00000000000000     0.00000000000000     0.00000000000000
O     1.70661183075647     0.00000000000000     0.00000000000000
O     0.00000000000000     1.70661183075647     0.00000000000000
O     0.00000000000000     0.00000000000000     1.70661183075647