CRYSTAL
# Primitive lattice vectors in Angstrom
PRIMVEC
 5.26677802036946 0.00000000000000 0.00000000000000
 -0.00000000000000 5.26677802036946 0.00000000000000
 0.00000000000000 0.00000000000000 5.26677802036946
# Cartesian coordinates in Angstrom.
PRIMCOORD
 14 1
Sm     0.00000000000000     0.00000000000000     0.00000000000000
Sm     2.63338901018473     2.63338901018473     0.00000000000000
Sm     2.63338901018473     0.00000000000000     2.63338901018473
Sm     0.00000000000000     2.63338901018473     2.63338901018473
O     2.63338901018473     0.00000000000000     0.00000000000000
O     0.00000000000000     2.63338901018473     0.00000000000000
O     0.00000000000000     0.00000000000000     2.63338901018473
O     2.63338901018473     2.63338901018473     2.63338901018473
O     3.95008351527710     3.95008351527710     1.31669450509237
O     3.95008351527710     1.31669450509237     3.95008351527710
O     1.31669450509237     3.95008351527710     3.95008351527710
O     3.95008351527710     1.31669450509237     1.31669450509237
O     1.31669450509237     3.95008351527710     1.31669450509237
O     1.31669450509237     1.31669450509237     3.95008351527710