CRYSTAL
# Primitive lattice vectors in Angstrom
PRIMVEC
 4.05412365220413 0.00000000000000 0.00000000000000
 -0.00000000000000 4.05412365220413 0.00000000000000
 0.00000000000000 0.00000000000000 4.05412365220413
# Cartesian coordinates in Angstrom.
PRIMCOORD
 4 1
Sm     0.00000000000000     0.00000000000000     0.00000000000000
O     2.02706182610206     0.00000000000000     0.00000000000000
O     0.00000000000000     2.02706182610206     0.00000000000000
O     0.00000000000000     0.00000000000000     2.02706182610206