CRYSTAL
# Primitive lattice vectors in Angstrom
PRIMVEC
 5.24094260737827 0.00000000000000 0.00000000000000
 -0.00000000000000 5.24094260737827 0.00000000000000
 0.00000000000000 0.00000000000000 5.24094260737827
# Cartesian coordinates in Angstrom.
PRIMCOORD
 10 1
Sm     1.31023565184456     1.31023565184456     1.31023565184456
Sm     3.93070695553370     3.93070695553370     1.31023565184456
Sm     3.93070695553370     1.31023565184456     3.93070695553370
Sm     1.31023565184456     3.93070695553370     3.93070695553370
O     2.62047130368914     0.00000000000000     0.00000000000000
O     0.00000000000000     2.62047130368914     0.00000000000000
O     0.00000000000000     0.00000000000000     2.62047130368914
O     2.62047130368914     2.62047130368914     0.00000000000000
O     2.62047130368914     0.00000000000000     2.62047130368914
O     0.00000000000000     2.62047130368914     2.62047130368914