CRYSTAL
# Primitive lattice vectors in Angstrom
PRIMVEC
 4.00053329718181 0.00000000000000 0.00000000000000
 -0.00000000000000 4.00053329718181 0.00000000000000
 0.00000000000000 0.00000000000000 4.00053329718181
# Cartesian coordinates in Angstrom.
PRIMCOORD
 4 1
Sn     0.00000000000000     0.00000000000000     0.00000000000000
O     2.00026664859090     0.00000000000000     0.00000000000000
O     0.00000000000000     2.00026664859090     0.00000000000000
O     0.00000000000000     0.00000000000000     2.00026664859090