CRYSTAL
# Primitive lattice vectors in Angstrom
PRIMVEC
 5.22290533078371 0.00000000000000 0.00000000000000
 -0.00000000000000 5.22290533078371 0.00000000000000
 0.00000000000000 0.00000000000000 5.22290533078371
# Cartesian coordinates in Angstrom.
PRIMCOORD
 14 1
Sn     0.00000000000000     0.00000000000000     0.00000000000000
Sn     2.61145266539186     2.61145266539186     0.00000000000000
Sn     2.61145266539186     0.00000000000000     2.61145266539186
Sn     0.00000000000000     2.61145266539186     2.61145266539186
O     2.61145266539186     0.00000000000000     0.00000000000000
O     0.00000000000000     2.61145266539186     0.00000000000000
O     0.00000000000000     0.00000000000000     2.61145266539186
O     2.61145266539186     2.61145266539186     2.61145266539186
O     3.91717899808778     3.91717899808778     1.30572633269593
O     3.91717899808778     1.30572633269593     3.91717899808778
O     1.30572633269593     3.91717899808778     3.91717899808778
O     3.91717899808778     1.30572633269593     1.30572633269593
O     1.30572633269593     3.91717899808778     1.30572633269593
O     1.30572633269593     1.30572633269593     3.91717899808778