CRYSTAL
# Primitive lattice vectors in Angstrom
PRIMVEC
 5.13565927162483 0.00000000000000 0.00000000000000
 -0.00000000000000 5.13565927162483 0.00000000000000
 0.00000000000000 0.00000000000000 5.13565927162483
# Cartesian coordinates in Angstrom.
PRIMCOORD
 10 1
Sn     1.28391481790621     1.28391481790621     1.28391481790621
Sn     3.85174445371863     3.85174445371863     1.28391481790621
Sn     3.85174445371863     1.28391481790621     3.85174445371863
Sn     1.28391481790621     3.85174445371863     3.85174445371863
O     2.56782963581242     0.00000000000000     0.00000000000000
O     0.00000000000000     2.56782963581242     0.00000000000000
O     0.00000000000000     0.00000000000000     2.56782963581242
O     2.56782963581242     2.56782963581242     0.00000000000000
O     2.56782963581242     0.00000000000000     2.56782963581242
O     0.00000000000000     2.56782963581242     2.56782963581242