CRYSTAL
# Primitive lattice vectors in Angstrom
PRIMVEC
 5.60899891103147 0.00000000000000 0.00000000000000
 -0.00000000000000 5.60899891103147 0.00000000000000
 0.00000000000000 0.00000000000000 5.60899891103147
# Cartesian coordinates in Angstrom.
PRIMCOORD
 14 1
Sr     0.00000000000000     0.00000000000000     0.00000000000000
Sr     2.80449945551573     2.80449945551573     0.00000000000000
Sr     2.80449945551573     0.00000000000000     2.80449945551573
Sr     0.00000000000000     2.80449945551573     2.80449945551573
O     2.80449945551573     0.00000000000000     0.00000000000000
O     0.00000000000000     2.80449945551573     0.00000000000000
O     0.00000000000000     0.00000000000000     2.80449945551573
O     2.80449945551573     2.80449945551573     2.80449945551573
O     4.20674918327360     4.20674918327360     1.40224972775787
O     4.20674918327360     1.40224972775787     4.20674918327360
O     1.40224972775787     4.20674918327360     4.20674918327360
O     4.20674918327360     1.40224972775787     1.40224972775787
O     1.40224972775787     4.20674918327360     1.40224972775787
O     1.40224972775787     1.40224972775787     4.20674918327360