CRYSTAL
# Primitive lattice vectors in Angstrom
PRIMVEC
 5.63836537654110 0.00000000000000 0.00000000000000
 -0.00000000000000 5.63836537654110 0.00000000000000
 0.00000000000000 0.00000000000000 5.63836537654110
# Cartesian coordinates in Angstrom.
PRIMCOORD
 10 1
Sr     1.40959134413527     1.40959134413527     1.40959134413527
Sr     4.22877403240583     4.22877403240583     1.40959134413527
Sr     4.22877403240583     1.40959134413527     4.22877403240583
Sr     1.40959134413527     4.22877403240583     4.22877403240583
O     2.81918268827055     0.00000000000000     0.00000000000000
O     0.00000000000000     2.81918268827055     0.00000000000000
O     0.00000000000000     0.00000000000000     2.81918268827055
O     2.81918268827055     2.81918268827055     0.00000000000000
O     2.81918268827055     0.00000000000000     2.81918268827055
O     0.00000000000000     2.81918268827055     2.81918268827055