CRYSTAL
# Primitive lattice vectors in Angstrom
PRIMVEC
 3.89864548384711 0.00000000000000 0.00000000000000
 -0.00000000000000 3.89864548384711 0.00000000000000
 0.00000000000000 0.00000000000000 3.89864548384711
# Cartesian coordinates in Angstrom.
PRIMCOORD
 4 1
Ta     0.00000000000000     0.00000000000000     0.00000000000000
O     1.94932274192355     0.00000000000000     0.00000000000000
O     0.00000000000000     1.94932274192355     0.00000000000000
O     0.00000000000000     0.00000000000000     1.94932274192355