CRYSTAL
# Primitive lattice vectors in Angstrom
PRIMVEC
 4.84490263701223 0.00000000000000 0.00000000000000
 -0.00000000000000 4.84490263701223 0.00000000000000
 0.00000000000000 0.00000000000000 4.84490263701223
# Cartesian coordinates in Angstrom.
PRIMCOORD
 10 1
Ta     1.21122565925305     1.21122565925305     1.21122565925305
Ta     3.63367697775917     3.63367697775917     1.21122565925305
Ta     3.63367697775917     1.21122565925305     3.63367697775917
Ta     1.21122565925305     3.63367697775917     3.63367697775917
O     2.42245131850612     0.00000000000000     0.00000000000000
O     0.00000000000000     2.42245131850612     0.00000000000000
O     0.00000000000000     0.00000000000000     2.42245131850612
O     2.42245131850612     2.42245131850612     0.00000000000000
O     2.42245131850612     0.00000000000000     2.42245131850612
O     0.00000000000000     2.42245131850612     2.42245131850612