CRYSTAL
# Primitive lattice vectors in Angstrom
PRIMVEC
 4.98721345381097 0.00000000000000 0.00000000000000
 -0.00000000000000 4.98721345381097 0.00000000000000
 0.00000000000000 0.00000000000000 4.98721345381097
# Cartesian coordinates in Angstrom.
PRIMCOORD
 14 1
Ta     0.00000000000000     0.00000000000000     0.00000000000000
Ta     2.49360672690548     2.49360672690548     0.00000000000000
Ta     2.49360672690548     0.00000000000000     2.49360672690548
Ta     0.00000000000000     2.49360672690548     2.49360672690548
O     2.49360672690548     0.00000000000000     0.00000000000000
O     0.00000000000000     2.49360672690548     0.00000000000000
O     0.00000000000000     0.00000000000000     2.49360672690548
O     2.49360672690548     2.49360672690548     2.49360672690548
O     3.74041009035822     3.74041009035822     1.24680336345274
O     3.74041009035822     1.24680336345274     3.74041009035822
O     1.24680336345274     3.74041009035822     3.74041009035822
O     3.74041009035822     1.24680336345274     1.24680336345274
O     1.24680336345274     3.74041009035822     1.24680336345274
O     1.24680336345274     1.24680336345274     3.74041009035822