CRYSTAL
# Primitive lattice vectors in Angstrom
PRIMVEC
 5.18917233429267 0.00000000000000 0.00000000000000
 -0.00000000000000 5.18917233429267 0.00000000000000
 0.00000000000000 0.00000000000000 5.18917233429267
# Cartesian coordinates in Angstrom.
PRIMCOORD
 10 1
Tb     1.29729308357316     1.29729308357316     1.29729308357316
Tb     3.89187925071950     3.89187925071950     1.29729308357316
Tb     3.89187925071950     1.29729308357316     3.89187925071950
Tb     1.29729308357316     3.89187925071950     3.89187925071950
O     2.59458616714634     0.00000000000000     0.00000000000000
O     0.00000000000000     2.59458616714634     0.00000000000000
O     0.00000000000000     0.00000000000000     2.59458616714634
O     2.59458616714634     2.59458616714634     0.00000000000000
O     2.59458616714634     0.00000000000000     2.59458616714634
O     0.00000000000000     2.59458616714634     2.59458616714634