CRYSTAL
# Primitive lattice vectors in Angstrom
PRIMVEC
 4.04766003615409 0.00000000000000 0.00000000000000
 -0.00000000000000 4.04766003615409 0.00000000000000
 0.00000000000000 0.00000000000000 4.04766003615409
# Cartesian coordinates in Angstrom.
PRIMCOORD
 4 1
Tb     0.00000000000000     0.00000000000000     0.00000000000000
O     2.02383001807704     0.00000000000000     0.00000000000000
O     0.00000000000000     2.02383001807704     0.00000000000000
O     0.00000000000000     0.00000000000000     2.02383001807704