CRYSTAL
# Primitive lattice vectors in Angstrom
PRIMVEC
 5.24505841396523 0.00000000000000 0.00000000000000
 -0.00000000000000 5.24505841396523 0.00000000000000
 0.00000000000000 0.00000000000000 5.24505841396523
# Cartesian coordinates in Angstrom.
PRIMCOORD
 14 1
Tb     0.00000000000000     0.00000000000000     0.00000000000000
Tb     2.62252920698261     2.62252920698261     0.00000000000000
Tb     2.62252920698261     0.00000000000000     2.62252920698261
Tb     0.00000000000000     2.62252920698261     2.62252920698261
O     2.62252920698261     0.00000000000000     0.00000000000000
O     0.00000000000000     2.62252920698261     0.00000000000000
O     0.00000000000000     0.00000000000000     2.62252920698261
O     2.62252920698261     2.62252920698261     2.62252920698261
O     3.93379381047392     3.93379381047392     1.31126460349131
O     3.93379381047392     1.31126460349131     3.93379381047392
O     1.31126460349131     3.93379381047392     3.93379381047392
O     3.93379381047392     1.31126460349131     1.31126460349131
O     1.31126460349131     3.93379381047392     1.31126460349131
O     1.31126460349131     1.31126460349131     3.93379381047392