CRYSTAL
# Primitive lattice vectors in Angstrom
PRIMVEC
 4.69112576862607 0.00000000000000 0.00000000000000
 -0.00000000000000 4.69112576862607 0.00000000000000
 0.00000000000000 0.00000000000000 4.69112576862607
# Cartesian coordinates in Angstrom.
PRIMCOORD
 10 1
Tc     1.17278144215651     1.17278144215651     1.17278144215651
Tc     3.51834432646955     3.51834432646955     1.17278144215651
Tc     3.51834432646955     1.17278144215651     3.51834432646955
Tc     1.17278144215651     3.51834432646955     3.51834432646955
O     2.34556288431304     0.00000000000000     0.00000000000000
O     0.00000000000000     2.34556288431304     0.00000000000000
O     0.00000000000000     0.00000000000000     2.34556288431304
O     2.34556288431304     2.34556288431304     0.00000000000000
O     2.34556288431304     0.00000000000000     2.34556288431304
O     0.00000000000000     2.34556288431304     2.34556288431304