CRYSTAL
# Primitive lattice vectors in Angstrom
PRIMVEC
 3.70329158894442 0.00000000000000 0.00000000000000
 -0.00000000000000 3.70329158894442 0.00000000000000
 0.00000000000000 0.00000000000000 3.70329158894442
# Cartesian coordinates in Angstrom.
PRIMCOORD
 4 1
Tc     0.00000000000000     0.00000000000000     0.00000000000000
O     1.85164579447220     0.00000000000000     0.00000000000000
O     0.00000000000000     1.85164579447220     0.00000000000000
O     0.00000000000000     0.00000000000000     1.85164579447220