CRYSTAL
# Primitive lattice vectors in Angstrom
PRIMVEC
 4.88840270451942 0.00000000000000 0.00000000000000
 -0.00000000000000 4.88840270451942 0.00000000000000
 0.00000000000000 0.00000000000000 4.88840270451942
# Cartesian coordinates in Angstrom.
PRIMCOORD
 14 1
Tc     0.00000000000000     0.00000000000000     0.00000000000000
Tc     2.44420135225971     2.44420135225971     0.00000000000000
Tc     2.44420135225971     0.00000000000000     2.44420135225971
Tc     0.00000000000000     2.44420135225971     2.44420135225971
O     2.44420135225971     0.00000000000000     0.00000000000000
O     0.00000000000000     2.44420135225971     0.00000000000000
O     0.00000000000000     0.00000000000000     2.44420135225971
O     2.44420135225971     2.44420135225971     2.44420135225971
O     3.66630202838957     3.66630202838957     1.22210067612986
O     3.66630202838957     1.22210067612986     3.66630202838957
O     1.22210067612986     3.66630202838957     3.66630202838957
O     3.66630202838957     1.22210067612986     1.22210067612986
O     1.22210067612986     3.66630202838957     1.22210067612986
O     1.22210067612986     1.22210067612986     3.66630202838957