CRYSTAL
# Primitive lattice vectors in Angstrom
PRIMVEC
 5.28908792102890 0.00000000000000 0.00000000000000
 -0.00000000000000 5.28908792102890 0.00000000000000
 0.00000000000000 0.00000000000000 5.28908792102890
# Cartesian coordinates in Angstrom.
PRIMCOORD
 10 1
Te     1.32227198025722     1.32227198025722     1.32227198025722
Te     3.96681594077168     3.96681594077168     1.32227198025722
Te     3.96681594077168     1.32227198025722     3.96681594077168
Te     1.32227198025722     3.96681594077168     3.96681594077168
O     2.64454396051446     0.00000000000000     0.00000000000000
O     0.00000000000000     2.64454396051446     0.00000000000000
O     0.00000000000000     0.00000000000000     2.64454396051446
O     2.64454396051446     2.64454396051446     0.00000000000000
O     2.64454396051446     0.00000000000000     2.64454396051446
O     0.00000000000000     2.64454396051446     2.64454396051446