CRYSTAL
# Primitive lattice vectors in Angstrom
PRIMVEC
 5.30039386492943 0.00000000000000 0.00000000000000
 -0.00000000000000 5.30039386492943 0.00000000000000
 0.00000000000000 0.00000000000000 5.30039386492943
# Cartesian coordinates in Angstrom.
PRIMCOORD
 14 1
Te     0.00000000000000     0.00000000000000     0.00000000000000
Te     2.65019693246471     2.65019693246471     0.00000000000000
Te     2.65019693246471     0.00000000000000     2.65019693246471
Te     0.00000000000000     2.65019693246471     2.65019693246471
O     2.65019693246471     0.00000000000000     0.00000000000000
O     0.00000000000000     2.65019693246471     0.00000000000000
O     0.00000000000000     0.00000000000000     2.65019693246471
O     2.65019693246471     2.65019693246471     2.65019693246471
O     3.97529539869707     3.97529539869707     1.32509846623236
O     3.97529539869707     1.32509846623236     3.97529539869707
O     1.32509846623236     3.97529539869707     3.97529539869707
O     3.97529539869707     1.32509846623236     1.32509846623236
O     1.32509846623236     3.97529539869707     1.32509846623236
O     1.32509846623236     1.32509846623236     3.97529539869707