CRYSTAL
# Primitive lattice vectors in Angstrom
PRIMVEC
 4.33017819150928 0.00000000000000 0.00000000000000
 -0.00000000000000 4.33017819150928 0.00000000000000
 0.00000000000000 0.00000000000000 4.33017819150928
# Cartesian coordinates in Angstrom.
PRIMCOORD
 4 1
Th     0.00000000000000     0.00000000000000     0.00000000000000
O     2.16508909575463     0.00000000000000     0.00000000000000
O     0.00000000000000     2.16508909575463     0.00000000000000
O     0.00000000000000     0.00000000000000     2.16508909575463