CRYSTAL
# Primitive lattice vectors in Angstrom
PRIMVEC
 5.51961867142399 0.00000000000000 0.00000000000000
 -0.00000000000000 5.51961867142399 0.00000000000000
 0.00000000000000 0.00000000000000 5.51961867142399
# Cartesian coordinates in Angstrom.
PRIMCOORD
 14 1
Th     0.00000000000000     0.00000000000000     0.00000000000000
Th     2.75980933571199     2.75980933571199     0.00000000000000
Th     2.75980933571199     0.00000000000000     2.75980933571199
Th     0.00000000000000     2.75980933571199     2.75980933571199
O     2.75980933571199     0.00000000000000     0.00000000000000
O     0.00000000000000     2.75980933571199     0.00000000000000
O     0.00000000000000     0.00000000000000     2.75980933571199
O     2.75980933571199     2.75980933571199     2.75980933571199
O     4.13971400356799     4.13971400356799     1.37990466785600
O     4.13971400356799     1.37990466785600     4.13971400356799
O     1.37990466785600     4.13971400356799     4.13971400356799
O     4.13971400356799     1.37990466785600     1.37990466785600
O     1.37990466785600     4.13971400356799     1.37990466785600
O     1.37990466785600     1.37990466785600     4.13971400356799