CRYSTAL
# Primitive lattice vectors in Angstrom
PRIMVEC
 5.49319270617437 0.00000000000000 0.00000000000000
 -0.00000000000000 5.49319270617437 0.00000000000000
 0.00000000000000 0.00000000000000 5.49319270617437
# Cartesian coordinates in Angstrom.
PRIMCOORD
 10 1
Th     1.37329817654359     1.37329817654359     1.37329817654359
Th     4.11989452963078     4.11989452963078     1.37329817654359
Th     4.11989452963078     1.37329817654359     4.11989452963078
Th     1.37329817654359     4.11989452963078     4.11989452963078
O     2.74659635308719     0.00000000000000     0.00000000000000
O     0.00000000000000     2.74659635308719     0.00000000000000
O     0.00000000000000     0.00000000000000     2.74659635308719
O     2.74659635308719     2.74659635308719     0.00000000000000
O     2.74659635308719     0.00000000000000     2.74659635308719
O     0.00000000000000     2.74659635308719     2.74659635308719