CRYSTAL
# Primitive lattice vectors in Angstrom
PRIMVEC
 4.67720504003136 0.00000000000000 0.00000000000000
 -0.00000000000000 4.67720504003136 0.00000000000000
 0.00000000000000 0.00000000000000 4.67720504003136
# Cartesian coordinates in Angstrom.
PRIMCOORD
 10 1
Ti     1.16930126000784     1.16930126000784     1.16930126000784
Ti     3.50790378002352     3.50790378002352     1.16930126000784
Ti     3.50790378002352     1.16930126000784     3.50790378002352
Ti     1.16930126000784     3.50790378002352     3.50790378002352
O     2.33860252001568     0.00000000000000     0.00000000000000
O     0.00000000000000     2.33860252001568     0.00000000000000
O     0.00000000000000     0.00000000000000     2.33860252001568
O     2.33860252001568     2.33860252001568     0.00000000000000
O     2.33860252001568     0.00000000000000     2.33860252001568
O     0.00000000000000     2.33860252001568     2.33860252001568