CRYSTAL
# Primitive lattice vectors in Angstrom
PRIMVEC
 3.78668515202075 0.00000000000000 0.00000000000000
 -0.00000000000000 3.78668515202075 0.00000000000000
 0.00000000000000 0.00000000000000 3.78668515202075
# Cartesian coordinates in Angstrom.
PRIMCOORD
 4 1
Ti     0.00000000000000     0.00000000000000     0.00000000000000
O     1.89334257601037     0.00000000000000     0.00000000000000
O     0.00000000000000     1.89334257601037     0.00000000000000
O     0.00000000000000     0.00000000000000     1.89334257601037