CRYSTAL
# Primitive lattice vectors in Angstrom
PRIMVEC
 4.91987731367891 0.00000000000000 0.00000000000000
 -0.00000000000000 4.91987731367891 0.00000000000000
 0.00000000000000 0.00000000000000 4.91987731367891
# Cartesian coordinates in Angstrom.
PRIMCOORD
 14 1
Ti     0.00000000000000     0.00000000000000     0.00000000000000
Ti     2.45993865683946     2.45993865683946     0.00000000000000
Ti     2.45993865683946     0.00000000000000     2.45993865683946
Ti     0.00000000000000     2.45993865683946     2.45993865683946
O     2.45993865683946     0.00000000000000     0.00000000000000
O     0.00000000000000     2.45993865683946     0.00000000000000
O     0.00000000000000     0.00000000000000     2.45993865683946
O     2.45993865683946     2.45993865683946     2.45993865683946
O     3.68990798525918     3.68990798525918     1.22996932841973
O     3.68990798525918     1.22996932841973     3.68990798525918
O     1.22996932841973     3.68990798525918     3.68990798525918
O     3.68990798525918     1.22996932841973     1.22996932841973
O     1.22996932841973     3.68990798525918     1.22996932841973
O     1.22996932841973     1.22996932841973     3.68990798525918