CRYSTAL
# Primitive lattice vectors in Angstrom
PRIMVEC
 5.39241394489309 0.00000000000000 0.00000000000000
 -0.00000000000000 5.39241394489309 0.00000000000000
 0.00000000000000 0.00000000000000 5.39241394489309
# Cartesian coordinates in Angstrom.
PRIMCOORD
 14 1
Tl     0.00000000000000     0.00000000000000     0.00000000000000
Tl     2.69620697244655     2.69620697244655     0.00000000000000
Tl     2.69620697244655     0.00000000000000     2.69620697244655
Tl     0.00000000000000     2.69620697244655     2.69620697244655
O     2.69620697244655     0.00000000000000     0.00000000000000
O     0.00000000000000     2.69620697244655     0.00000000000000
O     0.00000000000000     0.00000000000000     2.69620697244655
O     2.69620697244655     2.69620697244655     2.69620697244655
O     4.04431045866982     4.04431045866982     1.34810348622327
O     4.04431045866982     1.34810348622327     4.04431045866982
O     1.34810348622327     4.04431045866982     4.04431045866982
O     4.04431045866982     1.34810348622327     1.34810348622327
O     1.34810348622327     4.04431045866982     1.34810348622327
O     1.34810348622327     1.34810348622327     4.04431045866982