CRYSTAL
# Primitive lattice vectors in Angstrom
PRIMVEC
 5.27746463654092 0.00000000000000 0.00000000000000
 -0.00000000000000 5.27746463654092 0.00000000000000
 0.00000000000000 0.00000000000000 5.27746463654092
# Cartesian coordinates in Angstrom.
PRIMCOORD
 10 1
Tl     1.31936615913523     1.31936615913523     1.31936615913523
Tl     3.95809847740569     3.95809847740569     1.31936615913523
Tl     3.95809847740569     1.31936615913523     3.95809847740569
Tl     1.31936615913523     3.95809847740569     3.95809847740569
O     2.63873231827047     0.00000000000000     0.00000000000000
O     0.00000000000000     2.63873231827047     0.00000000000000
O     0.00000000000000     0.00000000000000     2.63873231827047
O     2.63873231827047     2.63873231827047     0.00000000000000
O     2.63873231827047     0.00000000000000     2.63873231827047
O     0.00000000000000     2.63873231827047     2.63873231827047