CRYSTAL
# Primitive lattice vectors in Angstrom
PRIMVEC
 4.16297442451479 0.00000000000000 0.00000000000000
 -0.00000000000000 4.16297442451479 0.00000000000000
 0.00000000000000 0.00000000000000 4.16297442451479
# Cartesian coordinates in Angstrom.
PRIMCOORD
 4 1
Tl     0.00000000000000     0.00000000000000     0.00000000000000
O     2.08148721225739     0.00000000000000     0.00000000000000
O     0.00000000000000     2.08148721225739     0.00000000000000
O     0.00000000000000     0.00000000000000     2.08148721225739