CRYSTAL
# Primitive lattice vectors in Angstrom
PRIMVEC
 5.15238730428330 0.00000000000000 0.00000000000000
 -0.00000000000000 5.15238730428330 0.00000000000000
 0.00000000000000 0.00000000000000 5.15238730428330
# Cartesian coordinates in Angstrom.
PRIMCOORD
 10 1
Tm     1.28809682607082     1.28809682607082     1.28809682607082
Tm     3.86429047821247     3.86429047821247     1.28809682607082
Tm     3.86429047821247     1.28809682607082     3.86429047821247
Tm     1.28809682607082     3.86429047821247     3.86429047821247
O     2.57619365214165     0.00000000000000     0.00000000000000
O     0.00000000000000     2.57619365214165     0.00000000000000
O     0.00000000000000     0.00000000000000     2.57619365214165
O     2.57619365214165     2.57619365214165     0.00000000000000
O     2.57619365214165     0.00000000000000     2.57619365214165
O     0.00000000000000     2.57619365214165     2.57619365214165