CRYSTAL
# Primitive lattice vectors in Angstrom
PRIMVEC
 5.24599660407393 0.00000000000000 0.00000000000000
 -0.00000000000000 5.24599660407393 0.00000000000000
 0.00000000000000 0.00000000000000 5.24599660407393
# Cartesian coordinates in Angstrom.
PRIMCOORD
 14 1
Tm     0.00000000000000     0.00000000000000     0.00000000000000
Tm     2.62299830203697     2.62299830203697     0.00000000000000
Tm     2.62299830203697     0.00000000000000     2.62299830203697
Tm     0.00000000000000     2.62299830203697     2.62299830203697
O     2.62299830203697     0.00000000000000     0.00000000000000
O     0.00000000000000     2.62299830203697     0.00000000000000
O     0.00000000000000     0.00000000000000     2.62299830203697
O     2.62299830203697     2.62299830203697     2.62299830203697
O     3.93449745305545     3.93449745305545     1.31149915101848
O     3.93449745305545     1.31149915101848     3.93449745305545
O     1.31149915101848     3.93449745305545     3.93449745305545
O     3.93449745305545     1.31149915101848     1.31149915101848
O     1.31149915101848     3.93449745305545     1.31149915101848
O     1.31149915101848     1.31149915101848     3.93449745305545