CRYSTAL
# Primitive lattice vectors in Angstrom
PRIMVEC
 5.24318700816653 0.00000000000000 0.00000000000000
 -0.00000000000000 5.24318700816653 0.00000000000000
 0.00000000000000 0.00000000000000 5.24318700816653
# Cartesian coordinates in Angstrom.
PRIMCOORD
 14 1
U     0.00000000000000     0.00000000000000     0.00000000000000
U     2.62159350408327     2.62159350408327     0.00000000000000
U     2.62159350408327     0.00000000000000     2.62159350408327
U     0.00000000000000     2.62159350408327     2.62159350408327
O     2.62159350408327     0.00000000000000     0.00000000000000
O     0.00000000000000     2.62159350408327     0.00000000000000
O     0.00000000000000     0.00000000000000     2.62159350408327
O     2.62159350408327     2.62159350408327     2.62159350408327
O     3.93239025612490     3.93239025612490     1.31079675204163
O     3.93239025612490     1.31079675204163     3.93239025612490
O     1.31079675204163     3.93239025612490     3.93239025612490
O     3.93239025612490     1.31079675204163     1.31079675204163
O     1.31079675204163     3.93239025612490     1.31079675204163
O     1.31079675204163     1.31079675204163     3.93239025612490