CRYSTAL
# Primitive lattice vectors in Angstrom
PRIMVEC
 5.22931641357254 0.00000000000000 0.00000000000000
 -0.00000000000000 5.22931641357254 0.00000000000000
 0.00000000000000 0.00000000000000 5.22931641357254
# Cartesian coordinates in Angstrom.
PRIMCOORD
 10 1
U     1.30732910339313     1.30732910339313     1.30732910339313
U     3.92198731017940     3.92198731017940     1.30732910339313
U     3.92198731017940     1.30732910339313     3.92198731017940
U     1.30732910339313     3.92198731017940     3.92198731017940
O     2.61465820678627     0.00000000000000     0.00000000000000
O     0.00000000000000     2.61465820678627     0.00000000000000
O     0.00000000000000     0.00000000000000     2.61465820678627
O     2.61465820678627     2.61465820678627     0.00000000000000
O     2.61465820678627     0.00000000000000     2.61465820678627
O     0.00000000000000     2.61465820678627     2.61465820678627