CRYSTAL
# Primitive lattice vectors in Angstrom
PRIMVEC
 4.81961760994569 0.00000000000000 0.00000000000000
 -0.00000000000000 4.81961760994569 0.00000000000000
 0.00000000000000 0.00000000000000 4.81961760994569
# Cartesian coordinates in Angstrom.
PRIMCOORD
 14 1
V     0.00000000000000     0.00000000000000     0.00000000000000
V     2.40980880497285     2.40980880497285     0.00000000000000
V     2.40980880497285     0.00000000000000     2.40980880497285
V     0.00000000000000     2.40980880497285     2.40980880497285
O     2.40980880497285     0.00000000000000     0.00000000000000
O     0.00000000000000     2.40980880497285     0.00000000000000
O     0.00000000000000     0.00000000000000     2.40980880497285
O     2.40980880497285     2.40980880497285     2.40980880497285
O     3.61471320745927     3.61471320745927     1.20490440248642
O     3.61471320745927     1.20490440248642     3.61471320745927
O     1.20490440248642     3.61471320745927     3.61471320745927
O     3.61471320745927     1.20490440248642     1.20490440248642
O     1.20490440248642     3.61471320745927     1.20490440248642
O     1.20490440248642     1.20490440248642     3.61471320745927