CRYSTAL
# Primitive lattice vectors in Angstrom
PRIMVEC
 4.57329407156280 0.00000000000000 0.00000000000000
 -0.00000000000000 4.57329407156280 0.00000000000000
 0.00000000000000 0.00000000000000 4.57329407156280
# Cartesian coordinates in Angstrom.
PRIMCOORD
 10 1
V     1.14332351789070     1.14332351789070     1.14332351789070
V     3.42997055367210     3.42997055367210     1.14332351789070
V     3.42997055367210     1.14332351789070     3.42997055367210
V     1.14332351789070     3.42997055367210     3.42997055367210
O     2.28664703578140     0.00000000000000     0.00000000000000
O     0.00000000000000     2.28664703578140     0.00000000000000
O     0.00000000000000     0.00000000000000     2.28664703578140
O     2.28664703578140     2.28664703578140     0.00000000000000
O     2.28664703578140     0.00000000000000     2.28664703578140
O     0.00000000000000     2.28664703578140     2.28664703578140