CRYSTAL
# Primitive lattice vectors in Angstrom
PRIMVEC
 3.62790316596328 0.00000000000000 0.00000000000000
 -0.00000000000000 3.62790316596328 0.00000000000000
 0.00000000000000 0.00000000000000 3.62790316596328
# Cartesian coordinates in Angstrom.
PRIMCOORD
 4 1
V     0.00000000000000     0.00000000000000     0.00000000000000
O     1.81395158298164     0.00000000000000     0.00000000000000
O     0.00000000000000     1.81395158298164     0.00000000000000
O     0.00000000000000     0.00000000000000     1.81395158298164