CRYSTAL
# Primitive lattice vectors in Angstrom
PRIMVEC
 4.91583553727501 0.00000000000000 0.00000000000000
 -0.00000000000000 4.91583553727501 0.00000000000000
 0.00000000000000 0.00000000000000 4.91583553727501
# Cartesian coordinates in Angstrom.
PRIMCOORD
 14 1
W     0.00000000000000     0.00000000000000     0.00000000000000
W     2.45791776863750     2.45791776863750     0.00000000000000
W     2.45791776863750     0.00000000000000     2.45791776863750
W     0.00000000000000     2.45791776863750     2.45791776863750
O     2.45791776863750     0.00000000000000     0.00000000000000
O     0.00000000000000     2.45791776863750     0.00000000000000
O     0.00000000000000     0.00000000000000     2.45791776863750
O     2.45791776863750     2.45791776863750     2.45791776863750
O     3.68687665295626     3.68687665295626     1.22895888431875
O     3.68687665295626     1.22895888431875     3.68687665295626
O     1.22895888431875     3.68687665295626     3.68687665295626
O     3.68687665295626     1.22895888431875     1.22895888431875
O     1.22895888431875     3.68687665295626     1.22895888431875
O     1.22895888431875     1.22895888431875     3.68687665295626