CRYSTAL
# Primitive lattice vectors in Angstrom
PRIMVEC
 4.76879044400170 0.00000000000000 0.00000000000000
 -0.00000000000000 4.76879044400170 0.00000000000000
 0.00000000000000 0.00000000000000 4.76879044400170
# Cartesian coordinates in Angstrom.
PRIMCOORD
 10 1
W     1.19219761100042     1.19219761100042     1.19219761100042
W     3.57659283300128     3.57659283300128     1.19219761100042
W     3.57659283300128     1.19219761100042     3.57659283300128
W     1.19219761100042     3.57659283300128     3.57659283300128
O     2.38439522200085     0.00000000000000     0.00000000000000
O     0.00000000000000     2.38439522200085     0.00000000000000
O     0.00000000000000     0.00000000000000     2.38439522200085
O     2.38439522200085     2.38439522200085     0.00000000000000
O     2.38439522200085     0.00000000000000     2.38439522200085
O     0.00000000000000     2.38439522200085     2.38439522200085