CRYSTAL
# Primitive lattice vectors in Angstrom
PRIMVEC
 3.77691560685306 0.00000000000000 0.00000000000000
 -0.00000000000000 3.77691560685306 0.00000000000000
 0.00000000000000 0.00000000000000 3.77691560685306
# Cartesian coordinates in Angstrom.
PRIMCOORD
 4 1
W     0.00000000000000     0.00000000000000     0.00000000000000
O     1.88845780342653     0.00000000000000     0.00000000000000
O     0.00000000000000     1.88845780342653     0.00000000000000
O     0.00000000000000     0.00000000000000     1.88845780342653