CRYSTAL
# Primitive lattice vectors in Angstrom
PRIMVEC
 3.98079206262471 0.00000000000000 0.00000000000000
 -0.00000000000000 3.98079206262471 0.00000000000000
 0.00000000000000 0.00000000000000 3.98079206262471
# Cartesian coordinates in Angstrom.
PRIMCOORD
 4 1
Xe     0.00000000000000     0.00000000000000     0.00000000000000
O     1.99039603131235     0.00000000000000     0.00000000000000
O     0.00000000000000     1.99039603131235     0.00000000000000
O     0.00000000000000     0.00000000000000     1.99039603131235