CRYSTAL
# Primitive lattice vectors in Angstrom
PRIMVEC
 5.62408905410178 0.00000000000000 0.00000000000000
 -0.00000000000000 5.62408905410178 0.00000000000000
 0.00000000000000 0.00000000000000 5.62408905410178
# Cartesian coordinates in Angstrom.
PRIMCOORD
 10 1
Xe     1.40602226352544     1.40602226352544     1.40602226352544
Xe     4.21806679057634     4.21806679057634     1.40602226352544
Xe     4.21806679057634     1.40602226352544     4.21806679057634
Xe     1.40602226352544     4.21806679057634     4.21806679057634
O     2.81204452705089     0.00000000000000     0.00000000000000
O     0.00000000000000     2.81204452705089     0.00000000000000
O     0.00000000000000     0.00000000000000     2.81204452705089
O     2.81204452705089     2.81204452705089     0.00000000000000
O     2.81204452705089     0.00000000000000     2.81204452705089
O     0.00000000000000     2.81204452705089     2.81204452705089