CRYSTAL
# Primitive lattice vectors in Angstrom
PRIMVEC
 5.48153245403926 0.00000000000000 0.00000000000000
 -0.00000000000000 5.48153245403926 0.00000000000000
 0.00000000000000 0.00000000000000 5.48153245403926
# Cartesian coordinates in Angstrom.
PRIMCOORD
 14 1
Xe     0.00000000000000     0.00000000000000     0.00000000000000
Xe     2.74076622701963     2.74076622701963     0.00000000000000
Xe     2.74076622701963     0.00000000000000     2.74076622701963
Xe     0.00000000000000     2.74076622701963     2.74076622701963
O     2.74076622701963     0.00000000000000     0.00000000000000
O     0.00000000000000     2.74076622701963     0.00000000000000
O     0.00000000000000     0.00000000000000     2.74076622701963
O     2.74076622701963     2.74076622701963     2.74076622701963
O     4.11114934052945     4.11114934052945     1.37038311350982
O     4.11114934052945     1.37038311350982     4.11114934052945
O     1.37038311350982     4.11114934052945     4.11114934052945
O     4.11114934052945     1.37038311350982     1.37038311350982
O     1.37038311350982     4.11114934052945     1.37038311350982
O     1.37038311350982     1.37038311350982     4.11114934052945