CRYSTAL
# Primitive lattice vectors in Angstrom
PRIMVEC
 5.35341767278145 0.00000000000000 0.00000000000000
 -0.00000000000000 5.35341767278145 0.00000000000000
 0.00000000000000 0.00000000000000 5.35341767278145
# Cartesian coordinates in Angstrom.
PRIMCOORD
 14 1
Y     0.00000000000000     0.00000000000000     0.00000000000000
Y     2.67670883639072     2.67670883639072     0.00000000000000
Y     2.67670883639072     0.00000000000000     2.67670883639072
Y     0.00000000000000     2.67670883639072     2.67670883639072
O     2.67670883639072     0.00000000000000     0.00000000000000
O     0.00000000000000     2.67670883639072     0.00000000000000
O     0.00000000000000     0.00000000000000     2.67670883639072
O     2.67670883639072     2.67670883639072     2.67670883639072
O     4.01506325458609     4.01506325458609     1.33835441819536
O     4.01506325458609     1.33835441819536     4.01506325458609
O     1.33835441819536     4.01506325458609     4.01506325458609
O     4.01506325458609     1.33835441819536     1.33835441819536
O     1.33835441819536     4.01506325458609     1.33835441819536
O     1.33835441819536     1.33835441819536     4.01506325458609