CRYSTAL
# Primitive lattice vectors in Angstrom
PRIMVEC
 5.23587276418467 0.00000000000000 0.00000000000000
 -0.00000000000000 5.23587276418467 0.00000000000000
 0.00000000000000 0.00000000000000 5.23587276418467
# Cartesian coordinates in Angstrom.
PRIMCOORD
 10 1
Y     1.30896819104616     1.30896819104616     1.30896819104616
Y     3.92690457313850     3.92690457313850     1.30896819104616
Y     3.92690457313850     1.30896819104616     3.92690457313850
Y     1.30896819104616     3.92690457313850     3.92690457313850
O     2.61793638209234     0.00000000000000     0.00000000000000
O     0.00000000000000     2.61793638209234     0.00000000000000
O     0.00000000000000     0.00000000000000     2.61793638209234
O     2.61793638209234     2.61793638209234     0.00000000000000
O     2.61793638209234     0.00000000000000     2.61793638209234
O     0.00000000000000     2.61793638209234     2.61793638209234