CRYSTAL
# Primitive lattice vectors in Angstrom
PRIMVEC
 4.34098281086158 0.00000000000000 0.00000000000000
 -0.00000000000000 4.34098281086158 0.00000000000000
 0.00000000000000 0.00000000000000 4.34098281086158
# Cartesian coordinates in Angstrom.
PRIMCOORD
 4 1
Y     0.00000000000000     0.00000000000000     0.00000000000000
O     2.17049140543078     0.00000000000000     0.00000000000000
O     0.00000000000000     2.17049140543078     0.00000000000000
O     0.00000000000000     0.00000000000000     2.17049140543078