CRYSTAL
# Primitive lattice vectors in Angstrom
PRIMVEC
 4.11794951062897 0.00000000000000 0.00000000000000
 -0.00000000000000 4.11794951062897 0.00000000000000
 0.00000000000000 0.00000000000000 4.11794951062897
# Cartesian coordinates in Angstrom.
PRIMCOORD
 4 1
Yb     0.00000000000000     0.00000000000000     0.00000000000000
O     2.05897475531448     0.00000000000000     0.00000000000000
O     0.00000000000000     2.05897475531448     0.00000000000000
O     0.00000000000000     0.00000000000000     2.05897475531448