CRYSTAL
# Primitive lattice vectors in Angstrom
PRIMVEC
 5.25668189925849 0.00000000000000 0.00000000000000
 -0.00000000000000 5.25668189925849 0.00000000000000
 0.00000000000000 0.00000000000000 5.25668189925849
# Cartesian coordinates in Angstrom.
PRIMCOORD
 14 1
Yb     0.00000000000000     0.00000000000000     0.00000000000000
Yb     2.62834094962925     2.62834094962925     0.00000000000000
Yb     2.62834094962925     0.00000000000000     2.62834094962925
Yb     0.00000000000000     2.62834094962925     2.62834094962925
O     2.62834094962925     0.00000000000000     0.00000000000000
O     0.00000000000000     2.62834094962925     0.00000000000000
O     0.00000000000000     0.00000000000000     2.62834094962925
O     2.62834094962925     2.62834094962925     2.62834094962925
O     3.94251142444387     3.94251142444387     1.31417047481462
O     3.94251142444387     1.31417047481462     3.94251142444387
O     1.31417047481462     3.94251142444387     3.94251142444387
O     3.94251142444387     1.31417047481462     1.31417047481462
O     1.31417047481462     3.94251142444387     1.31417047481462
O     1.31417047481462     1.31417047481462     3.94251142444387