CRYSTAL
# Primitive lattice vectors in Angstrom
PRIMVEC
 5.15084470485903 0.00000000000000 0.00000000000000
 -0.00000000000000 5.15084470485903 0.00000000000000
 0.00000000000000 0.00000000000000 5.15084470485903
# Cartesian coordinates in Angstrom.
PRIMCOORD
 10 1
Yb     1.28771117621475     1.28771117621475     1.28771117621475
Yb     3.86313352864427     3.86313352864427     1.28771117621475
Yb     3.86313352864427     1.28771117621475     3.86313352864427
Yb     1.28771117621475     3.86313352864427     3.86313352864427
O     2.57542235242952     0.00000000000000     0.00000000000000
O     0.00000000000000     2.57542235242952     0.00000000000000
O     0.00000000000000     0.00000000000000     2.57542235242952
O     2.57542235242952     2.57542235242952     0.00000000000000
O     2.57542235242952     0.00000000000000     2.57542235242952
O     0.00000000000000     2.57542235242952     2.57542235242952