CRYSTAL
# Primitive lattice vectors in Angstrom
PRIMVEC
 5.00112058685075 0.00000000000000 0.00000000000000
 -0.00000000000000 5.00112058685075 0.00000000000000
 0.00000000000000 0.00000000000000 5.00112058685075
# Cartesian coordinates in Angstrom.
PRIMCOORD
 14 1
Zn     0.00000000000000     0.00000000000000     0.00000000000000
Zn     2.50056029342538     2.50056029342538     0.00000000000000
Zn     2.50056029342538     0.00000000000000     2.50056029342538
Zn     0.00000000000000     2.50056029342538     2.50056029342538
O     2.50056029342538     0.00000000000000     0.00000000000000
O     0.00000000000000     2.50056029342538     0.00000000000000
O     0.00000000000000     0.00000000000000     2.50056029342538
O     2.50056029342538     2.50056029342538     2.50056029342538
O     3.75084044013807     3.75084044013807     1.25028014671269
O     3.75084044013807     1.25028014671269     3.75084044013807
O     1.25028014671269     3.75084044013807     3.75084044013807
O     3.75084044013807     1.25028014671269     1.25028014671269
O     1.25028014671269     3.75084044013807     1.25028014671269
O     1.25028014671269     1.25028014671269     3.75084044013807