CRYSTAL
# Primitive lattice vectors in Angstrom
PRIMVEC
 4.70405870224181 0.00000000000000 0.00000000000000
 -0.00000000000000 4.70405870224181 0.00000000000000
 0.00000000000000 0.00000000000000 4.70405870224181
# Cartesian coordinates in Angstrom.
PRIMCOORD
 10 1
Zn     1.17601467556045     1.17601467556045     1.17601467556045
Zn     3.52804402668136     3.52804402668136     1.17601467556045
Zn     3.52804402668136     1.17601467556045     3.52804402668136
Zn     1.17601467556045     3.52804402668136     3.52804402668136
O     2.35202935112091     0.00000000000000     0.00000000000000
O     0.00000000000000     2.35202935112091     0.00000000000000
O     0.00000000000000     0.00000000000000     2.35202935112091
O     2.35202935112091     2.35202935112091     0.00000000000000
O     2.35202935112091     0.00000000000000     2.35202935112091
O     0.00000000000000     2.35202935112091     2.35202935112091