CRYSTAL
# Primitive lattice vectors in Angstrom
PRIMVEC
 3.73015496963100 0.00000000000000 0.00000000000000
 -0.00000000000000 3.73015496963100 0.00000000000000
 0.00000000000000 0.00000000000000 3.73015496963100
# Cartesian coordinates in Angstrom.
PRIMCOORD
 4 1
Zn     0.00000000000000     0.00000000000000     0.00000000000000
O     1.86507748481550     0.00000000000000     0.00000000000000
O     0.00000000000000     1.86507748481550     0.00000000000000
O     0.00000000000000     0.00000000000000     1.86507748481550