CRYSTAL
# Primitive lattice vectors in Angstrom
PRIMVEC
 5.13629543505020 0.00000000000000 0.00000000000000
 -0.00000000000000 5.13629543505020 0.00000000000000
 0.00000000000000 0.00000000000000 5.13629543505020
# Cartesian coordinates in Angstrom.
PRIMCOORD
 14 1
Zr     0.00000000000000     0.00000000000000     0.00000000000000
Zr     2.56814771752510     2.56814771752510     0.00000000000000
Zr     2.56814771752510     0.00000000000000     2.56814771752510
Zr     0.00000000000000     2.56814771752510     2.56814771752510
O     2.56814771752510     0.00000000000000     0.00000000000000
O     0.00000000000000     2.56814771752510     0.00000000000000
O     0.00000000000000     0.00000000000000     2.56814771752510
O     2.56814771752510     2.56814771752510     2.56814771752510
O     3.85222157628765     3.85222157628765     1.28407385876255
O     3.85222157628765     1.28407385876255     3.85222157628765
O     1.28407385876255     3.85222157628765     3.85222157628765
O     3.85222157628765     1.28407385876255     1.28407385876255
O     1.28407385876255     3.85222157628765     1.28407385876255
O     1.28407385876255     1.28407385876255     3.85222157628765