CRYSTAL
# Primitive lattice vectors in Angstrom
PRIMVEC
 4.09432914658315 0.00000000000000 0.00000000000000
 -0.00000000000000 4.09432914658315 0.00000000000000
 0.00000000000000 0.00000000000000 4.09432914658315
# Cartesian coordinates in Angstrom.
PRIMCOORD
 4 1
Zr     0.00000000000000     0.00000000000000     0.00000000000000
O     2.04716457329157     0.00000000000000     0.00000000000000
O     0.00000000000000     2.04716457329157     0.00000000000000
O     0.00000000000000     0.00000000000000     2.04716457329157