CRYSTAL
# Primitive lattice vectors in Angstrom
PRIMVEC
 4.97986790106293 0.00000000000000 0.00000000000000
 -0.00000000000000 4.97986790106293 0.00000000000000
 0.00000000000000 0.00000000000000 4.97986790106293
# Cartesian coordinates in Angstrom.
PRIMCOORD
 10 1
Zr     1.24496697526573     1.24496697526573     1.24496697526573
Zr     3.73490092579720     3.73490092579720     1.24496697526573
Zr     3.73490092579720     1.24496697526573     3.73490092579720
Zr     1.24496697526573     3.73490092579720     3.73490092579720
O     2.48993395053147     0.00000000000000     0.00000000000000
O     0.00000000000000     2.48993395053147     0.00000000000000
O     0.00000000000000     0.00000000000000     2.48993395053147
O     2.48993395053147     2.48993395053147     0.00000000000000
O     2.48993395053147     0.00000000000000     2.48993395053147
O     0.00000000000000     2.48993395053147     2.48993395053147