&CONTROL
  calculation = 'bands'
  outdir = './out/'
  prefix = 'aiida'
  pseudo_dir = './pseudo/'
  verbosity = 'high'
/
&SYSTEM
  degauss =   4.5000000000d-03
  ecutrho =   3.2000000000d+02
  ecutwfc =   4.0000000000d+01
  ibrav = 0
  nat = 2
  ntyp = 1
  occupations = 'smearing'
  smearing = 'f-d'
/
&ELECTRONS
/
ATOMIC_SPECIES
Er     167.259 Er.paw.z_22.atompaw.wentzcovitch.v1.2.upf
ATOMIC_POSITIONS angstrom
Er           0.0000000000       0.0000000000       4.3147825731 
Er           2.1573912866       6.4721738597       2.1573912866 
K_POINTS crystal
124
        0.0000000000       0.0000000000       0.0000000000       1.0000000000
        0.0178571429       0.0000000000       0.0178571429       1.0000000000
        0.0357142857       0.0000000000       0.0357142857       1.0000000000
        0.0535714286      -0.0000000000       0.0535714286       1.0000000000
        0.0714285714       0.0000000000       0.0714285714       1.0000000000
        0.0892857143      -0.0000000000       0.0892857143       1.0000000000
        0.1071428571      -0.0000000000       0.1071428571       1.0000000000
        0.1250000000       0.0000000000       0.1250000000       1.0000000000
        0.1428571429       0.0000000000       0.1428571429       1.0000000000
        0.1607142857       0.0000000000       0.1607142857       1.0000000000
        0.1785714286      -0.0000000000       0.1785714286       1.0000000000
        0.1964285714       0.0000000000       0.1964285714       1.0000000000
        0.2142857143      -0.0000000000       0.2142857143       1.0000000000
        0.2321428571      -0.0000000000       0.2321428571       1.0000000000
        0.2500000000       0.0000000000       0.2500000000       1.0000000000
        0.2678571429       0.0000000000       0.2678571429       1.0000000000
        0.2857142857       0.0000000000       0.2857142857       1.0000000000
        0.3035714286      -0.0000000000       0.3035714286       1.0000000000
        0.3214285714       0.0000000000       0.3214285714       1.0000000000
        0.3392857143      -0.0000000000       0.3392857143       1.0000000000
        0.3571428571      -0.0000000000       0.3571428571       1.0000000000
        0.3750000000       0.0000000000       0.3750000000       1.0000000000
        0.3928571429       0.0000000000       0.3928571429       1.0000000000
        0.4107142857       0.0000000000       0.4107142857       1.0000000000
        0.4285714286      -0.0000000000       0.4285714286       1.0000000000
        0.4464285714       0.0000000000       0.4464285714       1.0000000000
        0.4642857143      -0.0000000000       0.4642857143       1.0000000000
        0.4821428571      -0.0000000000       0.4821428571       1.0000000000
        0.5000000000       0.0000000000       0.5000000000       1.0000000000
        0.5138888889       0.0277777778       0.5138888889       1.0000000000
        0.5277777778       0.0555555556       0.5277777778       1.0000000000
        0.5416666667       0.0833333333       0.5416666667       1.0000000000
        0.5555555556       0.1111111111       0.5555555556       1.0000000000
        0.5694444444       0.1388888889       0.5694444444       1.0000000000
        0.5833333333       0.1666666667       0.5833333333       1.0000000000
        0.5972222222       0.1944444444       0.5972222222       1.0000000000
        0.6111111111       0.2222222222       0.6111111111       1.0000000000
        0.6250000000       0.2500000000       0.6250000000       1.0000000000
        0.3750000000       0.3750000000       0.7500000000       1.0000000000
        0.3620689655       0.3620689655       0.7241379310       1.0000000000
        0.3491379310       0.3491379310       0.6982758621       1.0000000000
        0.3362068966       0.3362068966       0.6724137931       1.0000000000
        0.3232758621       0.3232758621       0.6465517241       1.0000000000
        0.3103448276       0.3103448276       0.6206896552       1.0000000000
        0.2974137931       0.2974137931       0.5948275862       1.0000000000
        0.2844827586       0.2844827586       0.5689655172       1.0000000000
        0.2715517241       0.2715517241       0.5431034483       1.0000000000
        0.2586206897       0.2586206897       0.5172413793       1.0000000000
        0.2456896552       0.2456896552       0.4913793103       1.0000000000
        0.2327586207       0.2327586207       0.4655172414       1.0000000000
        0.2198275862       0.2198275862       0.4396551724       1.0000000000
        0.2068965517       0.2068965517       0.4137931034       1.0000000000
        0.1939655172       0.1939655172       0.3879310345       1.0000000000
        0.1810344828       0.1810344828       0.3620689655       1.0000000000
        0.1681034483       0.1681034483       0.3362068966       1.0000000000
        0.1551724138       0.1551724138       0.3103448276       1.0000000000
        0.1422413793       0.1422413793       0.2844827586       1.0000000000
        0.1293103448       0.1293103448       0.2586206897       1.0000000000
        0.1163793103       0.1163793103       0.2327586207       1.0000000000
        0.1034482759       0.1034482759       0.2068965517       1.0000000000
        0.0905172414       0.0905172414       0.1810344828       1.0000000000
        0.0775862069       0.0775862069       0.1551724138       1.0000000000
        0.0646551724       0.0646551724       0.1293103448       1.0000000000
        0.0517241379       0.0517241379       0.1034482759       1.0000000000
        0.0387931034       0.0387931034       0.0775862069       1.0000000000
        0.0258620690       0.0258620690       0.0517241379       1.0000000000
        0.0129310345       0.0129310345       0.0258620690       1.0000000000
        0.0000000000       0.0000000000       0.0000000000       1.0000000000
        0.0208333333       0.0208333333       0.0208333333       1.0000000000
        0.0416666667       0.0416666667       0.0416666667       1.0000000000
        0.0625000000       0.0625000000       0.0625000000       1.0000000000
        0.0833333333       0.0833333333       0.0833333333       1.0000000000
        0.1041666667       0.1041666667       0.1041666667       1.0000000000
        0.1250000000       0.1250000000       0.1250000000       1.0000000000
        0.1458333333       0.1458333333       0.1458333333       1.0000000000
        0.1666666667       0.1666666667       0.1666666667       1.0000000000
        0.1875000000       0.1875000000       0.1875000000       1.0000000000
        0.2083333333       0.2083333333       0.2083333333       1.0000000000
        0.2291666667       0.2291666667       0.2291666667       1.0000000000
        0.2500000000       0.2500000000       0.2500000000       1.0000000000
        0.2708333333       0.2708333333       0.2708333333       1.0000000000
        0.2916666667       0.2916666667       0.2916666667       1.0000000000
        0.3125000000       0.3125000000       0.3125000000       1.0000000000
        0.3333333333       0.3333333333       0.3333333333       1.0000000000
        0.3541666667       0.3541666667       0.3541666667       1.0000000000
        0.3750000000       0.3750000000       0.3750000000       1.0000000000
        0.3958333333       0.3958333333       0.3958333333       1.0000000000
        0.4166666667       0.4166666667       0.4166666667       1.0000000000
        0.4375000000       0.4375000000       0.4375000000       1.0000000000
        0.4583333333       0.4583333333       0.4583333333       1.0000000000
        0.4791666667       0.4791666667       0.4791666667       1.0000000000
        0.5000000000       0.5000000000       0.5000000000       1.0000000000
        0.5000000000       0.4868421053       0.5131578947       1.0000000000
        0.5000000000       0.4736842105       0.5263157895       1.0000000000
        0.5000000000       0.4605263158       0.5394736842       1.0000000000
        0.5000000000       0.4473684211       0.5526315789       1.0000000000
        0.5000000000       0.4342105263       0.5657894737       1.0000000000
        0.5000000000       0.4210526316       0.5789473684       1.0000000000
        0.5000000000       0.4078947368       0.5921052632       1.0000000000
        0.5000000000       0.3947368421       0.6052631579       1.0000000000
        0.5000000000       0.3815789474       0.6184210526       1.0000000000
        0.5000000000       0.3684210526       0.6315789474       1.0000000000
        0.5000000000       0.3552631579       0.6447368421       1.0000000000
        0.5000000000       0.3421052632       0.6578947368       1.0000000000
        0.5000000000       0.3289473684       0.6710526316       1.0000000000
        0.5000000000       0.3157894737       0.6842105263       1.0000000000
        0.5000000000       0.3026315789       0.6973684211       1.0000000000
        0.5000000000       0.2894736842       0.7105263158       1.0000000000
        0.5000000000       0.2763157895       0.7236842105       1.0000000000
        0.5000000000       0.2631578947       0.7368421053       1.0000000000
        0.5000000000       0.2500000000       0.7500000000       1.0000000000
        0.5000000000       0.2307692308       0.7307692308       1.0000000000
        0.5000000000       0.2115384615       0.7115384615       1.0000000000
        0.5000000000       0.1923076923       0.6923076923       1.0000000000
        0.5000000000       0.1730769231       0.6730769231       1.0000000000
        0.5000000000       0.1538461538       0.6538461538       1.0000000000
        0.5000000000       0.1346153846       0.6346153846       1.0000000000
        0.5000000000       0.1153846154       0.6153846154       1.0000000000
        0.5000000000       0.0961538462       0.5961538462       1.0000000000
        0.5000000000       0.0769230769       0.5769230769       1.0000000000
        0.5000000000       0.0576923077       0.5576923077       1.0000000000
        0.5000000000       0.0384615385       0.5384615385       1.0000000000
        0.5000000000       0.0192307692       0.5192307692       1.0000000000
        0.5000000000       0.0000000000       0.5000000000       1.0000000000
CELL_PARAMETERS angstrom
      0.0000000000       4.3147825731       4.3147825731
      4.3147825731       0.0000000000       4.3147825731
      4.3147825731       4.3147825731       0.0000000000
