CRYSTAL
# Primitive lattice vectors in Angstrom
PRIMVEC
 5.80901995477535 0.00000000000000 0.00000000000000
 -0.00000000000000 5.80901995477535 0.00000000000000
 0.00000000000000 0.00000000000000 5.80901995477535
# Cartesian coordinates in Angstrom.
PRIMCOORD
 10 1
Ac     1.45225498869383     1.45225498869383     1.45225498869383
Ac     4.35676496608151     4.35676496608151     1.45225498869383
Ac     4.35676496608151     1.45225498869383     4.35676496608151
Ac     1.45225498869383     4.35676496608151     4.35676496608151
O     2.90450997738768     0.00000000000000     0.00000000000000
O     0.00000000000000     2.90450997738768     0.00000000000000
O     0.00000000000000     0.00000000000000     2.90450997738768
O     2.90450997738768     2.90450997738768     0.00000000000000
O     2.90450997738768     0.00000000000000     2.90450997738768
O     0.00000000000000     2.90450997738768     2.90450997738768