CRYSTAL
# Primitive lattice vectors in Angstrom
PRIMVEC
 5.83272436569450 0.00000000000000 0.00000000000000
 -0.00000000000000 5.83272436569450 0.00000000000000
 0.00000000000000 0.00000000000000 5.83272436569450
# Cartesian coordinates in Angstrom.
PRIMCOORD
 14 1
Ac     0.00000000000000     0.00000000000000     0.00000000000000
Ac     2.91636218284725     2.91636218284725     0.00000000000000
Ac     2.91636218284725     0.00000000000000     2.91636218284725
Ac     0.00000000000000     2.91636218284725     2.91636218284725
O     2.91636218284725     0.00000000000000     0.00000000000000
O     0.00000000000000     2.91636218284725     0.00000000000000
O     0.00000000000000     0.00000000000000     2.91636218284725
O     2.91636218284725     2.91636218284725     2.91636218284725
O     4.37454327427088     4.37454327427088     1.45818109142363
O     4.37454327427088     1.45818109142363     4.37454327427088
O     1.45818109142363     4.37454327427088     4.37454327427088
O     4.37454327427088     1.45818109142363     1.45818109142363
O     1.45818109142363     4.37454327427088     1.45818109142363
O     1.45818109142363     1.45818109142363     4.37454327427088