CRYSTAL
# Primitive lattice vectors in Angstrom
PRIMVEC
 4.41957657882911 0.00000000000000 0.00000000000000
 -0.00000000000000 4.41957657882911 0.00000000000000
 0.00000000000000 0.00000000000000 4.41957657882911
# Cartesian coordinates in Angstrom.
PRIMCOORD
 4 1
Ac     0.00000000000000     0.00000000000000     0.00000000000000
O     2.20978828941455     0.00000000000000     0.00000000000000
O     0.00000000000000     2.20978828941455     0.00000000000000
O     0.00000000000000     0.00000000000000     2.20978828941455