CRYSTAL
# Primitive lattice vectors in Angstrom
PRIMVEC
 5.21108608698346 0.00000000000000 0.00000000000000
 -0.00000000000000 5.21108608698346 0.00000000000000
 0.00000000000000 0.00000000000000 5.21108608698346
# Cartesian coordinates in Angstrom.
PRIMCOORD
 14 1
Ag     0.00000000000000     0.00000000000000     0.00000000000000
Ag     2.60554304349173     2.60554304349173     0.00000000000000
Ag     2.60554304349173     0.00000000000000     2.60554304349173
Ag     0.00000000000000     2.60554304349173     2.60554304349173
O     2.60554304349173     0.00000000000000     0.00000000000000
O     0.00000000000000     2.60554304349173     0.00000000000000
O     0.00000000000000     0.00000000000000     2.60554304349173
O     2.60554304349173     2.60554304349173     2.60554304349173
O     3.90831456523760     3.90831456523760     1.30277152174587
O     3.90831456523760     1.30277152174587     3.90831456523760
O     1.30277152174587     3.90831456523760     3.90831456523760
O     3.90831456523760     1.30277152174587     1.30277152174587
O     1.30277152174587     3.90831456523760     1.30277152174587
O     1.30277152174587     1.30277152174587     3.90831456523760