CRYSTAL
# Primitive lattice vectors in Angstrom
PRIMVEC
 4.99928918246874 0.00000000000000 0.00000000000000
 -0.00000000000000 4.99928918246874 0.00000000000000
 0.00000000000000 0.00000000000000 4.99928918246874
# Cartesian coordinates in Angstrom.
PRIMCOORD
 10 1
Ag     1.24982229561718     1.24982229561718     1.24982229561718
Ag     3.74946688685156     3.74946688685156     1.24982229561718
Ag     3.74946688685156     1.24982229561718     3.74946688685156
Ag     1.24982229561718     3.74946688685156     3.74946688685156
O     2.49964459123438     0.00000000000000     0.00000000000000
O     0.00000000000000     2.49964459123438     0.00000000000000
O     0.00000000000000     0.00000000000000     2.49964459123438
O     2.49964459123438     2.49964459123438     0.00000000000000
O     2.49964459123438     0.00000000000000     2.49964459123438
O     0.00000000000000     2.49964459123438     2.49964459123438