CRYSTAL
# Primitive lattice vectors in Angstrom
PRIMVEC
 3.95654523876052 0.00000000000000 0.00000000000000
 -0.00000000000000 3.95654523876052 0.00000000000000
 0.00000000000000 0.00000000000000 3.95654523876052
# Cartesian coordinates in Angstrom.
PRIMCOORD
 4 1
Ag     0.00000000000000     0.00000000000000     0.00000000000000
O     1.97827261938026     0.00000000000000     0.00000000000000
O     0.00000000000000     1.97827261938026     0.00000000000000
O     0.00000000000000     0.00000000000000     1.97827261938026