CRYSTAL
# Primitive lattice vectors in Angstrom
PRIMVEC
 4.96192518602218 0.00000000000000 0.00000000000000
 -0.00000000000000 4.96192518602218 0.00000000000000
 0.00000000000000 0.00000000000000 4.96192518602218
# Cartesian coordinates in Angstrom.
PRIMCOORD
 14 1
Al     0.00000000000000     0.00000000000000     0.00000000000000
Al     2.48096259301109     2.48096259301109     0.00000000000000
Al     2.48096259301109     0.00000000000000     2.48096259301109
Al     0.00000000000000     2.48096259301109     2.48096259301109
O     2.48096259301109     0.00000000000000     0.00000000000000
O     0.00000000000000     2.48096259301109     0.00000000000000
O     0.00000000000000     0.00000000000000     2.48096259301109
O     2.48096259301109     2.48096259301109     2.48096259301109
O     3.72144388951663     3.72144388951663     1.24048129650554
O     3.72144388951663     1.24048129650554     3.72144388951663
O     1.24048129650554     3.72144388951663     3.72144388951663
O     3.72144388951663     1.24048129650554     1.24048129650554
O     1.24048129650554     3.72144388951663     1.24048129650554
O     1.24048129650554     1.24048129650554     3.72144388951663