CRYSTAL
# Primitive lattice vectors in Angstrom
PRIMVEC
 3.64753364585564 0.00000000000000 0.00000000000000
 -0.00000000000000 3.64753364585564 0.00000000000000
 0.00000000000000 0.00000000000000 3.64753364585564
# Cartesian coordinates in Angstrom.
PRIMCOORD
 4 1
Al     0.00000000000000     0.00000000000000     0.00000000000000
O     1.82376682292781     0.00000000000000     0.00000000000000
O     0.00000000000000     1.82376682292781     0.00000000000000
O     0.00000000000000     0.00000000000000     1.82376682292781