CRYSTAL
# Primitive lattice vectors in Angstrom
PRIMVEC
 4.58157426345459 0.00000000000000 0.00000000000000
 -0.00000000000000 4.58157426345459 0.00000000000000
 0.00000000000000 0.00000000000000 4.58157426345459
# Cartesian coordinates in Angstrom.
PRIMCOORD
 10 1
Al     1.14539356586364     1.14539356586364     1.14539356586364
Al     3.43618069759094     3.43618069759094     1.14539356586364
Al     3.43618069759094     1.14539356586364     3.43618069759094
Al     1.14539356586364     3.43618069759094     3.43618069759094
O     2.29078713172730     0.00000000000000     0.00000000000000
O     0.00000000000000     2.29078713172730     0.00000000000000
O     0.00000000000000     0.00000000000000     2.29078713172730
O     2.29078713172730     2.29078713172730     0.00000000000000
O     2.29078713172730     0.00000000000000     2.29078713172730
O     0.00000000000000     2.29078713172730     2.29078713172730