CRYSTAL
# Primitive lattice vectors in Angstrom
PRIMVEC
 5.18627887722373 0.00000000000000 0.00000000000000
 -0.00000000000000 5.18627887722373 0.00000000000000
 0.00000000000000 0.00000000000000 5.18627887722373
# Cartesian coordinates in Angstrom.
PRIMCOORD
 10 1
Am     1.29656971930593     1.29656971930593     1.29656971930593
Am     3.88970915791780     3.88970915791780     1.29656971930593
Am     3.88970915791780     1.29656971930593     3.88970915791780
Am     1.29656971930593     3.88970915791780     3.88970915791780
O     2.59313943861187     0.00000000000000     0.00000000000000
O     0.00000000000000     2.59313943861187     0.00000000000000
O     0.00000000000000     0.00000000000000     2.59313943861187
O     2.59313943861187     2.59313943861187     0.00000000000000
O     2.59313943861187     0.00000000000000     2.59313943861187
O     0.00000000000000     2.59313943861187     2.59313943861187