CRYSTAL
# Primitive lattice vectors in Angstrom
PRIMVEC
 4.03825893617032 0.00000000000000 0.00000000000000
 -0.00000000000000 4.03825893617032 0.00000000000000
 0.00000000000000 0.00000000000000 4.03825893617032
# Cartesian coordinates in Angstrom.
PRIMCOORD
 4 1
Am     0.00000000000000     0.00000000000000     0.00000000000000
O     2.01912946808515     0.00000000000000     0.00000000000000
O     0.00000000000000     2.01912946808515     0.00000000000000
O     0.00000000000000     0.00000000000000     2.01912946808515