CRYSTAL
# Primitive lattice vectors in Angstrom
PRIMVEC
 5.22525194837618 0.00000000000000 0.00000000000000
 -0.00000000000000 5.22525194837618 0.00000000000000
 0.00000000000000 0.00000000000000 5.22525194837618
# Cartesian coordinates in Angstrom.
PRIMCOORD
 14 1
Am     0.00000000000000     0.00000000000000     0.00000000000000
Am     2.61262597418809     2.61262597418809     0.00000000000000
Am     2.61262597418809     0.00000000000000     2.61262597418809
Am     0.00000000000000     2.61262597418809     2.61262597418809
O     2.61262597418809     0.00000000000000     0.00000000000000
O     0.00000000000000     2.61262597418809     0.00000000000000
O     0.00000000000000     0.00000000000000     2.61262597418809
O     2.61262597418809     2.61262597418809     2.61262597418809
O     3.91893896128214     3.91893896128214     1.30631298709405
O     3.91893896128214     1.30631298709405     3.91893896128214
O     1.30631298709405     3.91893896128214     3.91893896128214
O     3.91893896128214     1.30631298709405     1.30631298709405
O     1.30631298709405     3.91893896128214     1.30631298709405
O     1.30631298709405     1.30631298709405     3.91893896128214