CRYSTAL
# Primitive lattice vectors in Angstrom
PRIMVEC
 5.52861144484162 0.00000000000000 0.00000000000000
 -0.00000000000000 5.52861144484162 0.00000000000000
 0.00000000000000 0.00000000000000 5.52861144484162
# Cartesian coordinates in Angstrom.
PRIMCOORD
 14 1
Ar     0.00000000000000     0.00000000000000     0.00000000000000
Ar     2.76430572242081     2.76430572242081     0.00000000000000
Ar     2.76430572242081     0.00000000000000     2.76430572242081
Ar     0.00000000000000     2.76430572242081     2.76430572242081
O     2.76430572242081     0.00000000000000     0.00000000000000
O     0.00000000000000     2.76430572242081     0.00000000000000
O     0.00000000000000     0.00000000000000     2.76430572242081
O     2.76430572242081     2.76430572242081     2.76430572242081
O     4.14645858363122     4.14645858363122     1.38215286121041
O     4.14645858363122     1.38215286121041     4.14645858363122
O     1.38215286121041     4.14645858363122     4.14645858363122
O     4.14645858363122     1.38215286121041     1.38215286121041
O     1.38215286121041     4.14645858363122     1.38215286121041
O     1.38215286121041     1.38215286121041     4.14645858363122