CRYSTAL
# Primitive lattice vectors in Angstrom
PRIMVEC
 5.69929763114253 0.00000000000000 0.00000000000000
 -0.00000000000000 5.69929763114253 0.00000000000000
 0.00000000000000 0.00000000000000 5.69929763114253
# Cartesian coordinates in Angstrom.
PRIMCOORD
 10 1
Ar     1.42482440778563     1.42482440778563     1.42482440778563
Ar     4.27447322335690     4.27447322335690     1.42482440778563
Ar     4.27447322335690     1.42482440778563     4.27447322335690
Ar     1.42482440778563     4.27447322335690     4.27447322335690
O     2.84964881557127     0.00000000000000     0.00000000000000
O     0.00000000000000     2.84964881557127     0.00000000000000
O     0.00000000000000     0.00000000000000     2.84964881557127
O     2.84964881557127     2.84964881557127     0.00000000000000
O     2.84964881557127     0.00000000000000     2.84964881557127
O     0.00000000000000     2.84964881557127     2.84964881557127