CRYSTAL
# Primitive lattice vectors in Angstrom
PRIMVEC
 3.95474071461817 0.00000000000000 0.00000000000000
 -0.00000000000000 3.95474071461817 0.00000000000000
 0.00000000000000 0.00000000000000 3.95474071461817
# Cartesian coordinates in Angstrom.
PRIMCOORD
 4 1
Ar     0.00000000000000     0.00000000000000     0.00000000000000
O     1.97737035730908     0.00000000000000     0.00000000000000
O     0.00000000000000     1.97737035730908     0.00000000000000
O     0.00000000000000     0.00000000000000     1.97737035730908