CRYSTAL
# Primitive lattice vectors in Angstrom
PRIMVEC
 3.57859089349082 0.00000000000000 0.00000000000000
 -0.00000000000000 3.57859089349082 0.00000000000000
 0.00000000000000 0.00000000000000 3.57859089349082
# Cartesian coordinates in Angstrom.
PRIMCOORD
 4 1
As     0.00000000000000     0.00000000000000     0.00000000000000
O     1.78929544674540     0.00000000000000     0.00000000000000
O     0.00000000000000     1.78929544674540     0.00000000000000
O     0.00000000000000     0.00000000000000     1.78929544674540