CRYSTAL
# Primitive lattice vectors in Angstrom
PRIMVEC
 5.00419692654245 0.00000000000000 0.00000000000000
 -0.00000000000000 5.00419692654245 0.00000000000000
 0.00000000000000 0.00000000000000 5.00419692654245
# Cartesian coordinates in Angstrom.
PRIMCOORD
 10 1
As     1.25104923163561     1.25104923163561     1.25104923163561
As     3.75314769490684     3.75314769490684     1.25104923163561
As     3.75314769490684     1.25104923163561     3.75314769490684
As     1.25104923163561     3.75314769490684     3.75314769490684
O     2.50209846327123     0.00000000000000     0.00000000000000
O     0.00000000000000     2.50209846327123     0.00000000000000
O     0.00000000000000     0.00000000000000     2.50209846327123
O     2.50209846327123     2.50209846327123     0.00000000000000
O     2.50209846327123     0.00000000000000     2.50209846327123
O     0.00000000000000     2.50209846327123     2.50209846327123