CRYSTAL
# Primitive lattice vectors in Angstrom
PRIMVEC
 5.15788352062985 0.00000000000000 0.00000000000000
 -0.00000000000000 5.15788352062985 0.00000000000000
 0.00000000000000 0.00000000000000 5.15788352062985
# Cartesian coordinates in Angstrom.
PRIMCOORD
 14 1
As     0.00000000000000     0.00000000000000     0.00000000000000
As     2.57894176031492     2.57894176031492     0.00000000000000
As     2.57894176031492     0.00000000000000     2.57894176031492
As     0.00000000000000     2.57894176031492     2.57894176031492
O     2.57894176031492     0.00000000000000     0.00000000000000
O     0.00000000000000     2.57894176031492     0.00000000000000
O     0.00000000000000     0.00000000000000     2.57894176031492
O     2.57894176031492     2.57894176031492     2.57894176031492
O     3.86841264047239     3.86841264047239     1.28947088015746
O     3.86841264047239     1.28947088015746     3.86841264047239
O     1.28947088015746     3.86841264047239     3.86841264047239
O     3.86841264047239     1.28947088015746     1.28947088015746
O     1.28947088015746     3.86841264047239     1.28947088015746
O     1.28947088015746     1.28947088015746     3.86841264047239