CRYSTAL
# Primitive lattice vectors in Angstrom
PRIMVEC
 4.11585851712758 0.00000000000000 0.00000000000000
 -0.00000000000000 4.11585851712758 0.00000000000000
 0.00000000000000 0.00000000000000 4.11585851712758
# Cartesian coordinates in Angstrom.
PRIMCOORD
 4 1
At     0.00000000000000     0.00000000000000     0.00000000000000
O     2.05792925856379     0.00000000000000     0.00000000000000
O     0.00000000000000     2.05792925856379     0.00000000000000
O     0.00000000000000     0.00000000000000     2.05792925856379