CRYSTAL
# Primitive lattice vectors in Angstrom
PRIMVEC
 5.53747256781711 0.00000000000000 0.00000000000000
 -0.00000000000000 5.53747256781711 0.00000000000000
 0.00000000000000 0.00000000000000 5.53747256781711
# Cartesian coordinates in Angstrom.
PRIMCOORD
 10 1
At     1.38436814195427     1.38436814195427     1.38436814195427
At     4.15310442586283     4.15310442586283     1.38436814195427
At     4.15310442586283     1.38436814195427     4.15310442586283
At     1.38436814195427     4.15310442586283     4.15310442586283
O     2.76873628390856     0.00000000000000     0.00000000000000
O     0.00000000000000     2.76873628390856     0.00000000000000
O     0.00000000000000     0.00000000000000     2.76873628390856
O     2.76873628390856     2.76873628390856     0.00000000000000
O     2.76873628390856     0.00000000000000     2.76873628390856
O     0.00000000000000     2.76873628390856     2.76873628390856