CRYSTAL
# Primitive lattice vectors in Angstrom
PRIMVEC
 5.45172286792104 0.00000000000000 0.00000000000000
 -0.00000000000000 5.45172286792104 0.00000000000000
 0.00000000000000 0.00000000000000 5.45172286792104
# Cartesian coordinates in Angstrom.
PRIMCOORD
 14 1
At     0.00000000000000     0.00000000000000     0.00000000000000
At     2.72586143396052     2.72586143396052     0.00000000000000
At     2.72586143396052     0.00000000000000     2.72586143396052
At     0.00000000000000     2.72586143396052     2.72586143396052
O     2.72586143396052     0.00000000000000     0.00000000000000
O     0.00000000000000     2.72586143396052     0.00000000000000
O     0.00000000000000     0.00000000000000     2.72586143396052
O     2.72586143396052     2.72586143396052     2.72586143396052
O     4.08879215094078     4.08879215094078     1.36293071698026
O     4.08879215094078     1.36293071698026     4.08879215094078
O     1.36293071698026     4.08879215094078     4.08879215094078
O     4.08879215094078     1.36293071698026     1.36293071698026
O     1.36293071698026     4.08879215094078     1.36293071698026
O     1.36293071698026     1.36293071698026     4.08879215094078