CRYSTAL
# Primitive lattice vectors in Angstrom
PRIMVEC
 5.22476954770077 0.00000000000000 0.00000000000000
 -0.00000000000000 5.22476954770077 0.00000000000000
 0.00000000000000 0.00000000000000 5.22476954770077
# Cartesian coordinates in Angstrom.
PRIMCOORD
 14 1
Au     0.00000000000000     0.00000000000000     0.00000000000000
Au     2.61238477385038     2.61238477385038     0.00000000000000
Au     2.61238477385038     0.00000000000000     2.61238477385038
Au     0.00000000000000     2.61238477385038     2.61238477385038
O     2.61238477385038     0.00000000000000     0.00000000000000
O     0.00000000000000     2.61238477385038     0.00000000000000
O     0.00000000000000     0.00000000000000     2.61238477385038
O     2.61238477385038     2.61238477385038     2.61238477385038
O     3.91857716077558     3.91857716077558     1.30619238692519
O     3.91857716077558     1.30619238692519     3.91857716077558
O     1.30619238692519     3.91857716077558     3.91857716077558
O     3.91857716077558     1.30619238692519     1.30619238692519
O     1.30619238692519     3.91857716077558     1.30619238692519
O     1.30619238692519     1.30619238692519     3.91857716077558