CRYSTAL
# Primitive lattice vectors in Angstrom
PRIMVEC
 5.04529030421557 0.00000000000000 0.00000000000000
 -0.00000000000000 5.04529030421557 0.00000000000000
 0.00000000000000 0.00000000000000 5.04529030421557
# Cartesian coordinates in Angstrom.
PRIMCOORD
 10 1
Au     1.26132257605389     1.26132257605389     1.26132257605389
Au     3.78396772816168     3.78396772816168     1.26132257605389
Au     3.78396772816168     1.26132257605389     3.78396772816168
Au     1.26132257605389     3.78396772816168     3.78396772816168
O     2.52264515210779     0.00000000000000     0.00000000000000
O     0.00000000000000     2.52264515210779     0.00000000000000
O     0.00000000000000     0.00000000000000     2.52264515210779
O     2.52264515210779     2.52264515210779     0.00000000000000
O     2.52264515210779     0.00000000000000     2.52264515210779
O     0.00000000000000     2.52264515210779     2.52264515210779