CRYSTAL
# Primitive lattice vectors in Angstrom
PRIMVEC
 3.93736597606391 0.00000000000000 0.00000000000000
 -0.00000000000000 3.93736597606391 0.00000000000000
 0.00000000000000 0.00000000000000 3.93736597606391
# Cartesian coordinates in Angstrom.
PRIMCOORD
 4 1
Au     0.00000000000000     0.00000000000000     0.00000000000000
O     1.96868298803195     0.00000000000000     0.00000000000000
O     0.00000000000000     1.96868298803195     0.00000000000000
O     0.00000000000000     0.00000000000000     1.96868298803195