CRYSTAL
# Primitive lattice vectors in Angstrom
PRIMVEC
 4.70278164543044 0.00000000000000 0.00000000000000
 -0.00000000000000 4.70278164543044 0.00000000000000
 0.00000000000000 0.00000000000000 4.70278164543044
# Cartesian coordinates in Angstrom.
PRIMCOORD
 14 1
B     0.00000000000000     0.00000000000000     0.00000000000000
B     2.35139082271522     2.35139082271522     0.00000000000000
B     2.35139082271522     0.00000000000000     2.35139082271522
B     0.00000000000000     2.35139082271522     2.35139082271522
O     2.35139082271522     0.00000000000000     0.00000000000000
O     0.00000000000000     2.35139082271522     0.00000000000000
O     0.00000000000000     0.00000000000000     2.35139082271522
O     2.35139082271522     2.35139082271522     2.35139082271522
O     3.52708623407283     3.52708623407283     1.17569541135761
O     3.52708623407283     1.17569541135761     3.52708623407283
O     1.17569541135761     3.52708623407283     3.52708623407283
O     3.52708623407283     1.17569541135761     1.17569541135761
O     1.17569541135761     3.52708623407283     1.17569541135761
O     1.17569541135761     1.17569541135761     3.52708623407283