CRYSTAL
# Primitive lattice vectors in Angstrom
PRIMVEC
 4.12355598226535 0.00000000000000 0.00000000000000
 -0.00000000000000 4.12355598226535 0.00000000000000
 0.00000000000000 0.00000000000000 4.12355598226535
# Cartesian coordinates in Angstrom.
PRIMCOORD
 10 1
B     1.03088899556634     1.03088899556634     1.03088899556634
B     3.09266698669901     3.09266698669901     1.03088899556634
B     3.09266698669901     1.03088899556634     3.09266698669901
B     1.03088899556634     3.09266698669901     3.09266698669901
O     2.06177799113268     0.00000000000000     0.00000000000000
O     0.00000000000000     2.06177799113268     0.00000000000000
O     0.00000000000000     0.00000000000000     2.06177799113268
O     2.06177799113268     2.06177799113268     0.00000000000000
O     2.06177799113268     0.00000000000000     2.06177799113268
O     0.00000000000000     2.06177799113268     2.06177799113268