CRYSTAL
# Primitive lattice vectors in Angstrom
PRIMVEC
 3.20035322089732 0.00000000000000 0.00000000000000
 -0.00000000000000 3.20035322089732 0.00000000000000
 0.00000000000000 0.00000000000000 3.20035322089732
# Cartesian coordinates in Angstrom.
PRIMCOORD
 4 1
B     0.00000000000000     0.00000000000000     0.00000000000000
O     1.60017661044865     0.00000000000000     0.00000000000000
O     0.00000000000000     1.60017661044865     0.00000000000000
O     0.00000000000000     0.00000000000000     1.60017661044865