CRYSTAL
# Primitive lattice vectors in Angstrom
PRIMVEC
 6.04951935217721 0.00000000000000 0.00000000000000
 -0.00000000000000 6.04951935217721 0.00000000000000
 0.00000000000000 0.00000000000000 6.04951935217721
# Cartesian coordinates in Angstrom.
PRIMCOORD
 10 1
Ba     1.51237983804430     1.51237983804430     1.51237983804430
Ba     4.53713951413291     4.53713951413291     1.51237983804430
Ba     4.53713951413291     1.51237983804430     4.53713951413291
Ba     1.51237983804430     4.53713951413291     4.53713951413291
O     3.02475967608861     0.00000000000000     0.00000000000000
O     0.00000000000000     3.02475967608861     0.00000000000000
O     0.00000000000000     0.00000000000000     3.02475967608861
O     3.02475967608861     3.02475967608861     0.00000000000000
O     3.02475967608861     0.00000000000000     3.02475967608861
O     0.00000000000000     3.02475967608861     3.02475967608861