CRYSTAL
# Primitive lattice vectors in Angstrom
PRIMVEC
 5.97075818278220 0.00000000000000 0.00000000000000
 -0.00000000000000 5.97075818278220 0.00000000000000
 0.00000000000000 0.00000000000000 5.97075818278220
# Cartesian coordinates in Angstrom.
PRIMCOORD
 14 1
Ba     0.00000000000000     0.00000000000000     0.00000000000000
Ba     2.98537909139110     2.98537909139110     0.00000000000000
Ba     2.98537909139110     0.00000000000000     2.98537909139110
Ba     0.00000000000000     2.98537909139110     2.98537909139110
O     2.98537909139110     0.00000000000000     0.00000000000000
O     0.00000000000000     2.98537909139110     0.00000000000000
O     0.00000000000000     0.00000000000000     2.98537909139110
O     2.98537909139110     2.98537909139110     2.98537909139110
O     4.47806863708665     4.47806863708665     1.49268954569555
O     4.47806863708665     1.49268954569555     4.47806863708665
O     1.49268954569555     4.47806863708665     4.47806863708665
O     4.47806863708665     1.49268954569555     1.49268954569555
O     1.49268954569555     4.47806863708665     1.49268954569555
O     1.49268954569555     1.49268954569555     4.47806863708665