CRYSTAL
# Primitive lattice vectors in Angstrom
PRIMVEC
 3.35304415166416 0.00000000000000 0.00000000000000
 -0.00000000000000 3.35304415166416 0.00000000000000
 0.00000000000000 0.00000000000000 3.35304415166416
# Cartesian coordinates in Angstrom.
PRIMCOORD
 4 1
Be     0.00000000000000     0.00000000000000     0.00000000000000
O     1.67652207583208     0.00000000000000     0.00000000000000
O     0.00000000000000     1.67652207583208     0.00000000000000
O     0.00000000000000     0.00000000000000     1.67652207583208