CRYSTAL
# Primitive lattice vectors in Angstrom
PRIMVEC
 4.80183700272653 0.00000000000000 0.00000000000000
 -0.00000000000000 4.80183700272653 0.00000000000000
 0.00000000000000 0.00000000000000 4.80183700272653
# Cartesian coordinates in Angstrom.
PRIMCOORD
 14 1
Be     0.00000000000000     0.00000000000000     0.00000000000000
Be     2.40091850136327     2.40091850136327     0.00000000000000
Be     2.40091850136327     0.00000000000000     2.40091850136327
Be     0.00000000000000     2.40091850136327     2.40091850136327
O     2.40091850136327     0.00000000000000     0.00000000000000
O     0.00000000000000     2.40091850136327     0.00000000000000
O     0.00000000000000     0.00000000000000     2.40091850136327
O     2.40091850136327     2.40091850136327     2.40091850136327
O     3.60137775204490     3.60137775204490     1.20045925068163
O     3.60137775204490     1.20045925068163     3.60137775204490
O     1.20045925068163     3.60137775204490     3.60137775204490
O     3.60137775204490     1.20045925068163     1.20045925068163
O     1.20045925068163     3.60137775204490     1.20045925068163
O     1.20045925068163     1.20045925068163     3.60137775204490