CRYSTAL
# Primitive lattice vectors in Angstrom
PRIMVEC
 4.23222525404152 0.00000000000000 0.00000000000000
 -0.00000000000000 4.23222525404152 0.00000000000000
 0.00000000000000 0.00000000000000 4.23222525404152
# Cartesian coordinates in Angstrom.
PRIMCOORD
 10 1
Be     1.05805631351038     1.05805631351038     1.05805631351038
Be     3.17416894053114     3.17416894053114     1.05805631351038
Be     3.17416894053114     1.05805631351038     3.17416894053114
Be     1.05805631351038     3.17416894053114     3.17416894053114
O     2.11611262702076     0.00000000000000     0.00000000000000
O     0.00000000000000     2.11611262702076     0.00000000000000
O     0.00000000000000     0.00000000000000     2.11611262702076
O     2.11611262702076     2.11611262702076     0.00000000000000
O     2.11611262702076     0.00000000000000     2.11611262702076
O     0.00000000000000     2.11611262702076     2.11611262702076