CRYSTAL
# Primitive lattice vectors in Angstrom
PRIMVEC
 4.15658874215420 0.00000000000000 0.00000000000000
 -0.00000000000000 4.15658874215420 0.00000000000000
 0.00000000000000 0.00000000000000 4.15658874215420
# Cartesian coordinates in Angstrom.
PRIMCOORD
 4 1
Bi     0.00000000000000     0.00000000000000     0.00000000000000
O     2.07829437107710     0.00000000000000     0.00000000000000
O     0.00000000000000     2.07829437107710     0.00000000000000
O     0.00000000000000     0.00000000000000     2.07829437107710