CRYSTAL
# Primitive lattice vectors in Angstrom
PRIMVEC
 5.51606709887240 0.00000000000000 0.00000000000000
 -0.00000000000000 5.51606709887240 0.00000000000000
 0.00000000000000 0.00000000000000 5.51606709887240
# Cartesian coordinates in Angstrom.
PRIMCOORD
 10 1
Bi     1.37901677471810     1.37901677471810     1.37901677471810
Bi     4.13705032415430     4.13705032415430     1.37901677471810
Bi     4.13705032415430     1.37901677471810     4.13705032415430
Bi     1.37901677471810     4.13705032415430     4.13705032415430
O     2.75803354943621     0.00000000000000     0.00000000000000
O     0.00000000000000     2.75803354943621     0.00000000000000
O     0.00000000000000     0.00000000000000     2.75803354943621
O     2.75803354943621     2.75803354943621     0.00000000000000
O     2.75803354943621     0.00000000000000     2.75803354943621
O     0.00000000000000     2.75803354943621     2.75803354943621