CRYSTAL
# Primitive lattice vectors in Angstrom
PRIMVEC
 5.53581811706690 0.00000000000000 0.00000000000000
 -0.00000000000000 5.53581811706690 0.00000000000000
 0.00000000000000 0.00000000000000 5.53581811706690
# Cartesian coordinates in Angstrom.
PRIMCOORD
 14 1
Bi     0.00000000000000     0.00000000000000     0.00000000000000
Bi     2.76790905853345     2.76790905853345     0.00000000000000
Bi     2.76790905853345     0.00000000000000     2.76790905853345
Bi     0.00000000000000     2.76790905853345     2.76790905853345
O     2.76790905853345     0.00000000000000     0.00000000000000
O     0.00000000000000     2.76790905853345     0.00000000000000
O     0.00000000000000     0.00000000000000     2.76790905853345
O     2.76790905853345     2.76790905853345     2.76790905853345
O     4.15186358780017     4.15186358780017     1.38395452926672
O     4.15186358780017     1.38395452926672     4.15186358780017
O     1.38395452926672     4.15186358780017     4.15186358780017
O     4.15186358780017     1.38395452926672     1.38395452926672
O     1.38395452926672     4.15186358780017     1.38395452926672
O     1.38395452926672     1.38395452926672     4.15186358780017