CRYSTAL
# Primitive lattice vectors in Angstrom
PRIMVEC
 4.02455289685042 0.00000000000000 0.00000000000000
 -0.00000000000000 4.02455289685042 0.00000000000000
 0.00000000000000 0.00000000000000 4.02455289685042
# Cartesian coordinates in Angstrom.
PRIMCOORD
 4 1
Bk     0.00000000000000     0.00000000000000     0.00000000000000
O     2.01227644842521     0.00000000000000     0.00000000000000
O     0.00000000000000     2.01227644842521     0.00000000000000
O     0.00000000000000     0.00000000000000     2.01227644842521