CRYSTAL
# Primitive lattice vectors in Angstrom
PRIMVEC
 5.23649277805837 0.00000000000000 0.00000000000000
 -0.00000000000000 5.23649277805837 0.00000000000000
 0.00000000000000 0.00000000000000 5.23649277805837
# Cartesian coordinates in Angstrom.
PRIMCOORD
 14 1
Bk     0.00000000000000     0.00000000000000     0.00000000000000
Bk     2.61824638902918     2.61824638902918     0.00000000000000
Bk     2.61824638902918     0.00000000000000     2.61824638902918
Bk     0.00000000000000     2.61824638902918     2.61824638902918
O     2.61824638902918     0.00000000000000     0.00000000000000
O     0.00000000000000     2.61824638902918     0.00000000000000
O     0.00000000000000     0.00000000000000     2.61824638902918
O     2.61824638902918     2.61824638902918     2.61824638902918
O     3.92736958354377     3.92736958354377     1.30912319451459
O     3.92736958354377     1.30912319451459     3.92736958354377
O     1.30912319451459     3.92736958354377     3.92736958354377
O     3.92736958354377     1.30912319451459     1.30912319451459
O     1.30912319451459     3.92736958354377     1.30912319451459
O     1.30912319451459     1.30912319451459     3.92736958354377