CRYSTAL
# Primitive lattice vectors in Angstrom
PRIMVEC
 5.18552849859917 0.00000000000000 0.00000000000000
 -0.00000000000000 5.18552849859917 0.00000000000000
 0.00000000000000 0.00000000000000 5.18552849859917
# Cartesian coordinates in Angstrom.
PRIMCOORD
 10 1
Bk     1.29638212464979     1.29638212464979     1.29638212464979
Bk     3.88914637394938     3.88914637394938     1.29638212464979
Bk     3.88914637394938     1.29638212464979     3.88914637394938
Bk     1.29638212464979     3.88914637394938     3.88914637394938
O     2.59276424929959     0.00000000000000     0.00000000000000
O     0.00000000000000     2.59276424929959     0.00000000000000
O     0.00000000000000     0.00000000000000     2.59276424929959
O     2.59276424929959     2.59276424929959     0.00000000000000
O     2.59276424929959     0.00000000000000     2.59276424929959
O     0.00000000000000     2.59276424929959     2.59276424929959