CRYSTAL
# Primitive lattice vectors in Angstrom
PRIMVEC
 5.19358927781169 0.00000000000000 0.00000000000000
 -0.00000000000000 5.19358927781169 0.00000000000000
 0.00000000000000 0.00000000000000 5.19358927781169
# Cartesian coordinates in Angstrom.
PRIMCOORD
 10 1
Br     1.29839731945292     1.29839731945292     1.29839731945292
Br     3.89519195835877     3.89519195835877     1.29839731945292
Br     3.89519195835877     1.29839731945292     3.89519195835877
Br     1.29839731945292     3.89519195835877     3.89519195835877
O     2.59679463890585     0.00000000000000     0.00000000000000
O     0.00000000000000     2.59679463890585     0.00000000000000
O     0.00000000000000     0.00000000000000     2.59679463890585
O     2.59679463890585     2.59679463890585     0.00000000000000
O     2.59679463890585     0.00000000000000     2.59679463890585
O     0.00000000000000     2.59679463890585     2.59679463890585