CRYSTAL
# Primitive lattice vectors in Angstrom
PRIMVEC
 5.27644355068837 0.00000000000000 0.00000000000000
 -0.00000000000000 5.27644355068837 0.00000000000000
 0.00000000000000 0.00000000000000 5.27644355068837
# Cartesian coordinates in Angstrom.
PRIMCOORD
 14 1
Br     0.00000000000000     0.00000000000000     0.00000000000000
Br     2.63822177534419     2.63822177534419     0.00000000000000
Br     2.63822177534419     0.00000000000000     2.63822177534419
Br     0.00000000000000     2.63822177534419     2.63822177534419
O     2.63822177534419     0.00000000000000     0.00000000000000
O     0.00000000000000     2.63822177534419     0.00000000000000
O     0.00000000000000     0.00000000000000     2.63822177534419
O     2.63822177534419     2.63822177534419     2.63822177534419
O     3.95733266301628     3.95733266301628     1.31911088767209
O     3.95733266301628     1.31911088767209     3.95733266301628
O     1.31911088767209     3.95733266301628     3.95733266301628
O     3.95733266301628     1.31911088767209     1.31911088767209
O     1.31911088767209     3.95733266301628     1.31911088767209
O     1.31911088767209     1.31911088767209     3.95733266301628