CRYSTAL
# Primitive lattice vectors in Angstrom
PRIMVEC
 4.80075011047189 0.00000000000000 0.00000000000000
 -0.00000000000000 4.80075011047189 0.00000000000000
 0.00000000000000 0.00000000000000 4.80075011047189
# Cartesian coordinates in Angstrom.
PRIMCOORD
 14 1
C     0.00000000000000     0.00000000000000     0.00000000000000
C     2.40037505523595     2.40037505523595     0.00000000000000
C     2.40037505523595     0.00000000000000     2.40037505523595
C     0.00000000000000     2.40037505523595     2.40037505523595
O     2.40037505523595     0.00000000000000     0.00000000000000
O     0.00000000000000     2.40037505523595     0.00000000000000
O     0.00000000000000     0.00000000000000     2.40037505523595
O     2.40037505523595     2.40037505523595     2.40037505523595
O     3.60056258285392     3.60056258285392     1.20018752761797
O     3.60056258285392     1.20018752761797     3.60056258285392
O     1.20018752761797     3.60056258285392     3.60056258285392
O     3.60056258285392     1.20018752761797     1.20018752761797
O     1.20018752761797     3.60056258285392     1.20018752761797
O     1.20018752761797     1.20018752761797     3.60056258285392