CRYSTAL
# Primitive lattice vectors in Angstrom
PRIMVEC
 4.32539229786695 0.00000000000000 0.00000000000000
 -0.00000000000000 4.32539229786695 0.00000000000000
 0.00000000000000 0.00000000000000 4.32539229786695
# Cartesian coordinates in Angstrom.
PRIMCOORD
 10 1
C     1.08134807446674     1.08134807446674     1.08134807446674
C     3.24404422340021     3.24404422340021     1.08134807446674
C     3.24404422340021     1.08134807446674     3.24404422340021
C     1.08134807446674     3.24404422340021     3.24404422340021
O     2.16269614893348     0.00000000000000     0.00000000000000
O     0.00000000000000     2.16269614893348     0.00000000000000
O     0.00000000000000     0.00000000000000     2.16269614893348
O     2.16269614893348     2.16269614893348     0.00000000000000
O     2.16269614893348     0.00000000000000     2.16269614893348
O     0.00000000000000     2.16269614893348     2.16269614893348