CRYSTAL
# Primitive lattice vectors in Angstrom
PRIMVEC
 3.16206543626254 0.00000000000000 0.00000000000000
 -0.00000000000000 3.16206543626254 0.00000000000000
 0.00000000000000 0.00000000000000 3.16206543626254
# Cartesian coordinates in Angstrom.
PRIMCOORD
 4 1
C     0.00000000000000     0.00000000000000     0.00000000000000
O     1.58103271813127     0.00000000000000     0.00000000000000
O     0.00000000000000     1.58103271813127     0.00000000000000
O     0.00000000000000     0.00000000000000     1.58103271813127