CRYSTAL
# Primitive lattice vectors in Angstrom
PRIMVEC
 4.48664021116058 0.00000000000000 0.00000000000000
 -0.00000000000000 4.48664021116058 0.00000000000000
 0.00000000000000 0.00000000000000 4.48664021116058
# Cartesian coordinates in Angstrom.
PRIMCOORD
 4 1
Ca     0.00000000000000     0.00000000000000     0.00000000000000
O     2.24332010558029     0.00000000000000     0.00000000000000
O     0.00000000000000     2.24332010558029     0.00000000000000
O     0.00000000000000     0.00000000000000     2.24332010558029