CRYSTAL
# Primitive lattice vectors in Angstrom
PRIMVEC
 5.43173534065573 0.00000000000000 0.00000000000000
 -0.00000000000000 5.43173534065573 0.00000000000000
 0.00000000000000 0.00000000000000 5.43173534065573
# Cartesian coordinates in Angstrom.
PRIMCOORD
 14 1
Ca     0.00000000000000     0.00000000000000     0.00000000000000
Ca     2.71586767032787     2.71586767032787     0.00000000000000
Ca     2.71586767032787     0.00000000000000     2.71586767032787
Ca     0.00000000000000     2.71586767032787     2.71586767032787
O     2.71586767032787     0.00000000000000     0.00000000000000
O     0.00000000000000     2.71586767032787     0.00000000000000
O     0.00000000000000     0.00000000000000     2.71586767032787
O     2.71586767032787     2.71586767032787     2.71586767032787
O     4.07380150549180     4.07380150549180     1.35793383516393
O     4.07380150549180     1.35793383516393     4.07380150549180
O     1.35793383516393     4.07380150549180     4.07380150549180
O     4.07380150549180     1.35793383516393     1.35793383516393
O     1.35793383516393     4.07380150549180     1.35793383516393
O     1.35793383516393     1.35793383516393     4.07380150549180