CRYSTAL
# Primitive lattice vectors in Angstrom
PRIMVEC
 5.35274408413354 0.00000000000000 0.00000000000000
 -0.00000000000000 5.35274408413354 0.00000000000000
 0.00000000000000 0.00000000000000 5.35274408413354
# Cartesian coordinates in Angstrom.
PRIMCOORD
 10 1
Ca     1.33818602103338     1.33818602103338     1.33818602103338
Ca     4.01455806310016     4.01455806310016     1.33818602103338
Ca     4.01455806310016     1.33818602103338     4.01455806310016
Ca     1.33818602103338     4.01455806310016     4.01455806310016
O     2.67637204206678     0.00000000000000     0.00000000000000
O     0.00000000000000     2.67637204206678     0.00000000000000
O     0.00000000000000     0.00000000000000     2.67637204206678
O     2.67637204206678     2.67637204206678     0.00000000000000
O     2.67637204206678     0.00000000000000     2.67637204206678
O     0.00000000000000     2.67637204206678     2.67637204206678