CRYSTAL
# Primitive lattice vectors in Angstrom
PRIMVEC
 5.34236447622880 0.00000000000000 0.00000000000000
 -0.00000000000000 5.34236447622880 0.00000000000000
 0.00000000000000 0.00000000000000 5.34236447622880
# Cartesian coordinates in Angstrom.
PRIMCOORD
 14 1
Cd     0.00000000000000     0.00000000000000     0.00000000000000
Cd     2.67118223811440     2.67118223811440     0.00000000000000
Cd     2.67118223811440     0.00000000000000     2.67118223811440
Cd     0.00000000000000     2.67118223811440     2.67118223811440
O     2.67118223811440     0.00000000000000     0.00000000000000
O     0.00000000000000     2.67118223811440     0.00000000000000
O     0.00000000000000     0.00000000000000     2.67118223811440
O     2.67118223811440     2.67118223811440     2.67118223811440
O     4.00677335717160     4.00677335717160     1.33559111905720
O     4.00677335717160     1.33559111905720     4.00677335717160
O     1.33559111905720     4.00677335717160     4.00677335717160
O     4.00677335717160     1.33559111905720     1.33559111905720
O     1.33559111905720     4.00677335717160     1.33559111905720
O     1.33559111905720     1.33559111905720     4.00677335717160