CRYSTAL
# Primitive lattice vectors in Angstrom
PRIMVEC
 5.18027370514206 0.00000000000000 0.00000000000000
 -0.00000000000000 5.18027370514206 0.00000000000000
 0.00000000000000 0.00000000000000 5.18027370514206
# Cartesian coordinates in Angstrom.
PRIMCOORD
 10 1
Cd     1.29506842628551     1.29506842628551     1.29506842628551
Cd     3.88520527885654     3.88520527885654     1.29506842628551
Cd     3.88520527885654     1.29506842628551     3.88520527885654
Cd     1.29506842628551     3.88520527885654     3.88520527885654
O     2.59013685257103     0.00000000000000     0.00000000000000
O     0.00000000000000     2.59013685257103     0.00000000000000
O     0.00000000000000     0.00000000000000     2.59013685257103
O     2.59013685257103     2.59013685257103     0.00000000000000
O     2.59013685257103     0.00000000000000     2.59013685257103
O     0.00000000000000     2.59013685257103     2.59013685257103