CRYSTAL
# Primitive lattice vectors in Angstrom
PRIMVEC
 5.41612477334264 0.00000000000000 0.00000000000000
 -0.00000000000000 5.41612477334264 0.00000000000000
 0.00000000000000 0.00000000000000 5.41612477334264
# Cartesian coordinates in Angstrom.
PRIMCOORD
 10 1
Ce     1.35403119333566     1.35403119333566     1.35403119333566
Ce     4.06209358000698     4.06209358000698     1.35403119333566
Ce     4.06209358000698     1.35403119333566     4.06209358000698
Ce     1.35403119333566     4.06209358000698     4.06209358000698
O     2.70806238667132     0.00000000000000     0.00000000000000
O     0.00000000000000     2.70806238667132     0.00000000000000
O     0.00000000000000     0.00000000000000     2.70806238667132
O     2.70806238667132     2.70806238667132     0.00000000000000
O     2.70806238667132     0.00000000000000     2.70806238667132
O     0.00000000000000     2.70806238667132     2.70806238667132