CRYSTAL
# Primitive lattice vectors in Angstrom
PRIMVEC
 5.44478642770669 0.00000000000000 0.00000000000000
 -0.00000000000000 5.44478642770669 0.00000000000000
 0.00000000000000 0.00000000000000 5.44478642770669
# Cartesian coordinates in Angstrom.
PRIMCOORD
 14 1
Ce     0.00000000000000     0.00000000000000     0.00000000000000
Ce     2.72239321385335     2.72239321385335     0.00000000000000
Ce     2.72239321385335     0.00000000000000     2.72239321385335
Ce     0.00000000000000     2.72239321385335     2.72239321385335
O     2.72239321385335     0.00000000000000     0.00000000000000
O     0.00000000000000     2.72239321385335     0.00000000000000
O     0.00000000000000     0.00000000000000     2.72239321385335
O     2.72239321385335     2.72239321385335     2.72239321385335
O     4.08358982078002     4.08358982078002     1.36119660692667
O     4.08358982078002     1.36119660692667     4.08358982078002
O     1.36119660692667     4.08358982078002     4.08358982078002
O     4.08358982078002     1.36119660692667     1.36119660692667
O     1.36119660692667     4.08358982078002     1.36119660692667
O     1.36119660692667     1.36119660692667     4.08358982078002