CRYSTAL
# Primitive lattice vectors in Angstrom
PRIMVEC
 5.25071457367587 0.00000000000000 0.00000000000000
 -0.00000000000000 5.25071457367587 0.00000000000000
 0.00000000000000 0.00000000000000 5.25071457367587
# Cartesian coordinates in Angstrom.
PRIMCOORD
 14 1
Cf     0.00000000000000     0.00000000000000     0.00000000000000
Cf     2.62535728683793     2.62535728683793     0.00000000000000
Cf     2.62535728683793     0.00000000000000     2.62535728683793
Cf     0.00000000000000     2.62535728683793     2.62535728683793
O     2.62535728683793     0.00000000000000     0.00000000000000
O     0.00000000000000     2.62535728683793     0.00000000000000
O     0.00000000000000     0.00000000000000     2.62535728683793
O     2.62535728683793     2.62535728683793     2.62535728683793
O     3.93803593025690     3.93803593025690     1.31267864341897
O     3.93803593025690     1.31267864341897     3.93803593025690
O     1.31267864341897     3.93803593025690     3.93803593025690
O     3.93803593025690     1.31267864341897     1.31267864341897
O     1.31267864341897     3.93803593025690     1.31267864341897
O     1.31267864341897     1.31267864341897     3.93803593025690