CRYSTAL
# Primitive lattice vectors in Angstrom
PRIMVEC
 5.19551260910634 0.00000000000000 0.00000000000000
 -0.00000000000000 5.19551260910634 0.00000000000000
 0.00000000000000 0.00000000000000 5.19551260910634
# Cartesian coordinates in Angstrom.
PRIMCOORD
 10 1
Cf     1.29887815227658     1.29887815227658     1.29887815227658
Cf     3.89663445682976     3.89663445682976     1.29887815227658
Cf     3.89663445682976     1.29887815227658     3.89663445682976
Cf     1.29887815227658     3.89663445682976     3.89663445682976
O     2.59775630455317     0.00000000000000     0.00000000000000
O     0.00000000000000     2.59775630455317     0.00000000000000
O     0.00000000000000     0.00000000000000     2.59775630455317
O     2.59775630455317     2.59775630455317     0.00000000000000
O     2.59775630455317     0.00000000000000     2.59775630455317
O     0.00000000000000     2.59775630455317     2.59775630455317