CRYSTAL
# Primitive lattice vectors in Angstrom
PRIMVEC
 4.02958949660562 0.00000000000000 0.00000000000000
 -0.00000000000000 4.02958949660562 0.00000000000000
 0.00000000000000 0.00000000000000 4.02958949660562
# Cartesian coordinates in Angstrom.
PRIMCOORD
 4 1
Cf     0.00000000000000     0.00000000000000     0.00000000000000
O     2.01479474830281     0.00000000000000     0.00000000000000
O     0.00000000000000     2.01479474830281     0.00000000000000
O     0.00000000000000     0.00000000000000     2.01479474830281