CRYSTAL
# Primitive lattice vectors in Angstrom
PRIMVEC
 3.67110566520612 0.00000000000000 0.00000000000000
 -0.00000000000000 3.67110566520612 0.00000000000000
 0.00000000000000 0.00000000000000 3.67110566520612
# Cartesian coordinates in Angstrom.
PRIMCOORD
 4 1
Cl     0.00000000000000     0.00000000000000     0.00000000000000
O     1.83555283260306     0.00000000000000     0.00000000000000
O     0.00000000000000     1.83555283260306     0.00000000000000
O     0.00000000000000     0.00000000000000     1.83555283260306