CRYSTAL
# Primitive lattice vectors in Angstrom
PRIMVEC
 5.19953267825756 0.00000000000000 0.00000000000000
 -0.00000000000000 5.19953267825756 0.00000000000000
 0.00000000000000 0.00000000000000 5.19953267825756
# Cartesian coordinates in Angstrom.
PRIMCOORD
 14 1
Cl     0.00000000000000     0.00000000000000     0.00000000000000
Cl     2.59976633912878     2.59976633912878     0.00000000000000
Cl     2.59976633912878     0.00000000000000     2.59976633912878
Cl     0.00000000000000     2.59976633912878     2.59976633912878
O     2.59976633912878     0.00000000000000     0.00000000000000
O     0.00000000000000     2.59976633912878     0.00000000000000
O     0.00000000000000     0.00000000000000     2.59976633912878
O     2.59976633912878     2.59976633912878     2.59976633912878
O     3.89964950869317     3.89964950869317     1.29988316956439
O     3.89964950869317     1.29988316956439     3.89964950869317
O     1.29988316956439     3.89964950869317     3.89964950869317
O     3.89964950869317     1.29988316956439     1.29988316956439
O     1.29988316956439     3.89964950869317     1.29988316956439
O     1.29988316956439     1.29988316956439     3.89964950869317