CRYSTAL
# Primitive lattice vectors in Angstrom
PRIMVEC
 5.03675457797878 0.00000000000000 0.00000000000000
 -0.00000000000000 5.03675457797878 0.00000000000000
 0.00000000000000 0.00000000000000 5.03675457797878
# Cartesian coordinates in Angstrom.
PRIMCOORD
 10 1
Cl     1.25918864449469     1.25918864449469     1.25918864449469
Cl     3.77756593348408     3.77756593348408     1.25918864449469
Cl     3.77756593348408     1.25918864449469     3.77756593348408
Cl     1.25918864449469     3.77756593348408     3.77756593348408
O     2.51837728898939     0.00000000000000     0.00000000000000
O     0.00000000000000     2.51837728898939     0.00000000000000
O     0.00000000000000     0.00000000000000     2.51837728898939
O     2.51837728898939     2.51837728898939     0.00000000000000
O     2.51837728898939     0.00000000000000     2.51837728898939
O     0.00000000000000     2.51837728898939     2.51837728898939