CRYSTAL
# Primitive lattice vectors in Angstrom
PRIMVEC
 4.02594993899124 0.00000000000000 0.00000000000000
 -0.00000000000000 4.02594993899124 0.00000000000000
 0.00000000000000 0.00000000000000 4.02594993899124
# Cartesian coordinates in Angstrom.
PRIMCOORD
 4 1
Cm     0.00000000000000     0.00000000000000     0.00000000000000
O     2.01297496949562     0.00000000000000     0.00000000000000
O     0.00000000000000     2.01297496949562     0.00000000000000
O     0.00000000000000     0.00000000000000     2.01297496949562