CRYSTAL
# Primitive lattice vectors in Angstrom
PRIMVEC
 5.18250514019601 0.00000000000000 0.00000000000000
 -0.00000000000000 5.18250514019601 0.00000000000000
 0.00000000000000 0.00000000000000 5.18250514019601
# Cartesian coordinates in Angstrom.
PRIMCOORD
 10 1
Cm     1.29562628504900     1.29562628504900     1.29562628504900
Cm     3.88687885514701     3.88687885514701     1.29562628504900
Cm     3.88687885514701     1.29562628504900     3.88687885514701
Cm     1.29562628504900     3.88687885514701     3.88687885514701
O     2.59125257009801     0.00000000000000     0.00000000000000
O     0.00000000000000     2.59125257009801     0.00000000000000
O     0.00000000000000     0.00000000000000     2.59125257009801
O     2.59125257009801     2.59125257009801     0.00000000000000
O     2.59125257009801     0.00000000000000     2.59125257009801
O     0.00000000000000     2.59125257009801     2.59125257009801