CRYSTAL
# Primitive lattice vectors in Angstrom
PRIMVEC
 5.22834759108310 0.00000000000000 0.00000000000000
 -0.00000000000000 5.22834759108310 0.00000000000000
 0.00000000000000 0.00000000000000 5.22834759108310
# Cartesian coordinates in Angstrom.
PRIMCOORD
 14 1
Cm     0.00000000000000     0.00000000000000     0.00000000000000
Cm     2.61417379554155     2.61417379554155     0.00000000000000
Cm     2.61417379554155     0.00000000000000     2.61417379554155
Cm     0.00000000000000     2.61417379554155     2.61417379554155
O     2.61417379554155     0.00000000000000     0.00000000000000
O     0.00000000000000     2.61417379554155     0.00000000000000
O     0.00000000000000     0.00000000000000     2.61417379554155
O     2.61417379554155     2.61417379554155     2.61417379554155
O     3.92126069331232     3.92126069331232     1.30708689777077
O     3.92126069331232     1.30708689777077     3.92126069331232
O     1.30708689777077     3.92126069331232     3.92126069331232
O     3.92126069331232     1.30708689777077     1.30708689777077
O     1.30708689777077     3.92126069331232     1.30708689777077
O     1.30708689777077     1.30708689777077     3.92126069331232