CRYSTAL
# Primitive lattice vectors in Angstrom
PRIMVEC
 4.82943294247881 0.00000000000000 0.00000000000000
 -0.00000000000000 4.82943294247881 0.00000000000000
 0.00000000000000 0.00000000000000 4.82943294247881
# Cartesian coordinates in Angstrom.
PRIMCOORD
 14 1
Co     0.00000000000000     0.00000000000000     0.00000000000000
Co     2.41471647123941     2.41471647123941     0.00000000000000
Co     2.41471647123941     0.00000000000000     2.41471647123941
Co     0.00000000000000     2.41471647123941     2.41471647123941
O     2.41471647123941     0.00000000000000     0.00000000000000
O     0.00000000000000     2.41471647123941     0.00000000000000
O     0.00000000000000     0.00000000000000     2.41471647123941
O     2.41471647123941     2.41471647123941     2.41471647123941
O     3.62207470685911     3.62207470685911     1.20735823561970
O     3.62207470685911     1.20735823561970     3.62207470685911
O     1.20735823561970     3.62207470685911     3.62207470685911
O     3.62207470685911     1.20735823561970     1.20735823561970
O     1.20735823561970     3.62207470685911     1.20735823561970
O     1.20735823561970     1.20735823561970     3.62207470685911