CRYSTAL
# Primitive lattice vectors in Angstrom
PRIMVEC
 3.57419447112210 0.00000000000000 0.00000000000000
 -0.00000000000000 3.57419447112210 0.00000000000000
 0.00000000000000 0.00000000000000 3.57419447112210
# Cartesian coordinates in Angstrom.
PRIMCOORD
 4 1
Co     0.00000000000000     0.00000000000000     0.00000000000000
O     1.78709723556105     0.00000000000000     0.00000000000000
O     0.00000000000000     1.78709723556105     0.00000000000000
O     0.00000000000000     0.00000000000000     1.78709723556105