CRYSTAL
# Primitive lattice vectors in Angstrom
PRIMVEC
 4.43554058936513 0.00000000000000 0.00000000000000
 -0.00000000000000 4.43554058936513 0.00000000000000
 0.00000000000000 0.00000000000000 4.43554058936513
# Cartesian coordinates in Angstrom.
PRIMCOORD
 10 1
Co     1.10888514734128     1.10888514734128     1.10888514734128
Co     3.32665544202385     3.32665544202385     1.10888514734128
Co     3.32665544202385     1.10888514734128     3.32665544202385
Co     1.10888514734128     3.32665544202385     3.32665544202385
O     2.21777029468257     0.00000000000000     0.00000000000000
O     0.00000000000000     2.21777029468257     0.00000000000000
O     0.00000000000000     0.00000000000000     2.21777029468257
O     2.21777029468257     2.21777029468257     0.00000000000000
O     2.21777029468257     0.00000000000000     2.21777029468257
O     0.00000000000000     2.21777029468257     2.21777029468257