CRYSTAL
# Primitive lattice vectors in Angstrom
PRIMVEC
 4.81586120468853 0.00000000000000 0.00000000000000
 -0.00000000000000 4.81586120468853 0.00000000000000
 0.00000000000000 0.00000000000000 4.81586120468853
# Cartesian coordinates in Angstrom.
PRIMCOORD
 14 1
Cr     0.00000000000000     0.00000000000000     0.00000000000000
Cr     2.40793060234427     2.40793060234427     0.00000000000000
Cr     2.40793060234427     0.00000000000000     2.40793060234427
Cr     0.00000000000000     2.40793060234427     2.40793060234427
O     2.40793060234427     0.00000000000000     0.00000000000000
O     0.00000000000000     2.40793060234427     0.00000000000000
O     0.00000000000000     0.00000000000000     2.40793060234427
O     2.40793060234427     2.40793060234427     2.40793060234427
O     3.61189590351640     3.61189590351640     1.20396530117213
O     3.61189590351640     1.20396530117213     3.61189590351640
O     1.20396530117213     3.61189590351640     3.61189590351640
O     3.61189590351640     1.20396530117213     1.20396530117213
O     1.20396530117213     3.61189590351640     1.20396530117213
O     1.20396530117213     1.20396530117213     3.61189590351640