CRYSTAL
# Primitive lattice vectors in Angstrom
PRIMVEC
 4.53554842830712 0.00000000000000 0.00000000000000
 -0.00000000000000 4.53554842830712 0.00000000000000
 0.00000000000000 0.00000000000000 4.53554842830712
# Cartesian coordinates in Angstrom.
PRIMCOORD
 10 1
Cr     1.13388710707678     1.13388710707678     1.13388710707678
Cr     3.40166132123034     3.40166132123034     1.13388710707678
Cr     3.40166132123034     1.13388710707678     3.40166132123034
Cr     1.13388710707678     3.40166132123034     3.40166132123034
O     2.26777421415356     0.00000000000000     0.00000000000000
O     0.00000000000000     2.26777421415356     0.00000000000000
O     0.00000000000000     0.00000000000000     2.26777421415356
O     2.26777421415356     2.26777421415356     0.00000000000000
O     2.26777421415356     0.00000000000000     2.26777421415356
O     0.00000000000000     2.26777421415356     2.26777421415356