CRYSTAL
# Primitive lattice vectors in Angstrom
PRIMVEC
 6.29947301108324 0.00000000000000 0.00000000000000
 -0.00000000000000 6.29947301108324 0.00000000000000
 0.00000000000000 0.00000000000000 6.29947301108324
# Cartesian coordinates in Angstrom.
PRIMCOORD
 10 1
Cs     1.57486825277081     1.57486825277081     1.57486825277081
Cs     4.72460475831244     4.72460475831244     1.57486825277081
Cs     4.72460475831244     1.57486825277081     4.72460475831244
Cs     1.57486825277081     4.72460475831244     4.72460475831244
O     3.14973650554163     0.00000000000000     0.00000000000000
O     0.00000000000000     3.14973650554163     0.00000000000000
O     0.00000000000000     0.00000000000000     3.14973650554163
O     3.14973650554163     3.14973650554163     0.00000000000000
O     3.14973650554163     0.00000000000000     3.14973650554163
O     0.00000000000000     3.14973650554163     3.14973650554163