CRYSTAL
# Primitive lattice vectors in Angstrom
PRIMVEC
 6.00746656963758 0.00000000000000 0.00000000000000
 -0.00000000000000 6.00746656963758 0.00000000000000
 0.00000000000000 0.00000000000000 6.00746656963758
# Cartesian coordinates in Angstrom.
PRIMCOORD
 14 1
Cs     0.00000000000000     0.00000000000000     0.00000000000000
Cs     3.00373328481879     3.00373328481879     0.00000000000000
Cs     3.00373328481879     0.00000000000000     3.00373328481879
Cs     0.00000000000000     3.00373328481879     3.00373328481879
O     3.00373328481879     0.00000000000000     0.00000000000000
O     0.00000000000000     3.00373328481879     0.00000000000000
O     0.00000000000000     0.00000000000000     3.00373328481879
O     3.00373328481879     3.00373328481879     3.00373328481879
O     4.50559992722819     4.50559992722819     1.50186664240940
O     4.50559992722819     1.50186664240940     4.50559992722819
O     1.50186664240940     4.50559992722819     4.50559992722819
O     4.50559992722819     1.50186664240940     1.50186664240940
O     1.50186664240940     4.50559992722819     1.50186664240940
O     1.50186664240940     1.50186664240940     4.50559992722819