CRYSTAL
# Primitive lattice vectors in Angstrom
PRIMVEC
 4.15550975025948 0.00000000000000 0.00000000000000
 -0.00000000000000 4.15550975025948 0.00000000000000
 0.00000000000000 0.00000000000000 4.15550975025948
# Cartesian coordinates in Angstrom.
PRIMCOORD
 4 1
Cs     0.00000000000000     0.00000000000000     0.00000000000000
O     2.07775487512973     0.00000000000000     0.00000000000000
O     0.00000000000000     2.07775487512973     0.00000000000000
O     0.00000000000000     0.00000000000000     2.07775487512973