CRYSTAL
# Primitive lattice vectors in Angstrom
PRIMVEC
 4.62937402509351 0.00000000000000 0.00000000000000
 -0.00000000000000 4.62937402509351 0.00000000000000
 0.00000000000000 0.00000000000000 4.62937402509351
# Cartesian coordinates in Angstrom.
PRIMCOORD
 10 1
Cu     1.15734350627337     1.15734350627337     1.15734350627337
Cu     3.47203051882013     3.47203051882013     1.15734350627337
Cu     3.47203051882013     1.15734350627337     3.47203051882013
Cu     1.15734350627337     3.47203051882013     3.47203051882013
O     2.31468701254676     0.00000000000000     0.00000000000000
O     0.00000000000000     2.31468701254676     0.00000000000000
O     0.00000000000000     0.00000000000000     2.31468701254676
O     2.31468701254676     2.31468701254676     0.00000000000000
O     2.31468701254676     0.00000000000000     2.31468701254676
O     0.00000000000000     2.31468701254676     2.31468701254676