CRYSTAL
# Primitive lattice vectors in Angstrom
PRIMVEC
 4.95885378660544 0.00000000000000 0.00000000000000
 -0.00000000000000 4.95885378660544 0.00000000000000
 0.00000000000000 0.00000000000000 4.95885378660544
# Cartesian coordinates in Angstrom.
PRIMCOORD
 14 1
Cu     0.00000000000000     0.00000000000000     0.00000000000000
Cu     2.47942689330272     2.47942689330272     0.00000000000000
Cu     2.47942689330272     0.00000000000000     2.47942689330272
Cu     0.00000000000000     2.47942689330272     2.47942689330272
O     2.47942689330272     0.00000000000000     0.00000000000000
O     0.00000000000000     2.47942689330272     0.00000000000000
O     0.00000000000000     0.00000000000000     2.47942689330272
O     2.47942689330272     2.47942689330272     2.47942689330272
O     3.71914033995408     3.71914033995408     1.23971344665136
O     3.71914033995408     1.23971344665136     3.71914033995408
O     1.23971344665136     3.71914033995408     3.71914033995408
O     3.71914033995408     1.23971344665136     1.23971344665136
O     1.23971344665136     3.71914033995408     1.23971344665136
O     1.23971344665136     1.23971344665136     3.71914033995408