CRYSTAL
# Primitive lattice vectors in Angstrom
PRIMVEC
 3.68017603902494 0.00000000000000 0.00000000000000
 -0.00000000000000 3.68017603902494 0.00000000000000
 0.00000000000000 0.00000000000000 3.68017603902494
# Cartesian coordinates in Angstrom.
PRIMCOORD
 4 1
Cu     0.00000000000000     0.00000000000000     0.00000000000000
O     1.84008801951247     0.00000000000000     0.00000000000000
O     0.00000000000000     1.84008801951247     0.00000000000000
O     0.00000000000000     0.00000000000000     1.84008801951247