CRYSTAL
# Primitive lattice vectors in Angstrom
PRIMVEC
 4.10172198769598 0.00000000000000 0.00000000000000
 -0.00000000000000 4.10172198769598 0.00000000000000
 0.00000000000000 0.00000000000000 4.10172198769598
# Cartesian coordinates in Angstrom.
PRIMCOORD
 4 1
Dy     0.00000000000000     0.00000000000000     0.00000000000000
O     2.05086099384798     0.00000000000000     0.00000000000000
O     0.00000000000000     2.05086099384798     0.00000000000000
O     0.00000000000000     0.00000000000000     2.05086099384798