CRYSTAL
# Primitive lattice vectors in Angstrom
PRIMVEC
 5.30494299751492 0.00000000000000 0.00000000000000
 -0.00000000000000 5.30494299751492 0.00000000000000
 0.00000000000000 0.00000000000000 5.30494299751492
# Cartesian coordinates in Angstrom.
PRIMCOORD
 14 1
Dy     0.00000000000000     0.00000000000000     0.00000000000000
Dy     2.65247149875746     2.65247149875746     0.00000000000000
Dy     2.65247149875746     0.00000000000000     2.65247149875746
Dy     0.00000000000000     2.65247149875746     2.65247149875746
O     2.65247149875746     0.00000000000000     0.00000000000000
O     0.00000000000000     2.65247149875746     0.00000000000000
O     0.00000000000000     0.00000000000000     2.65247149875746
O     2.65247149875746     2.65247149875746     2.65247149875746
O     3.97870724813619     3.97870724813619     1.32623574937873
O     3.97870724813619     1.32623574937873     3.97870724813619
O     1.32623574937873     3.97870724813619     3.97870724813619
O     3.97870724813619     1.32623574937873     1.32623574937873
O     1.32623574937873     3.97870724813619     1.32623574937873
O     1.32623574937873     1.32623574937873     3.97870724813619