CRYSTAL
# Primitive lattice vectors in Angstrom
PRIMVEC
 5.23584006282378 0.00000000000000 0.00000000000000
 -0.00000000000000 5.23584006282378 0.00000000000000
 0.00000000000000 0.00000000000000 5.23584006282378
# Cartesian coordinates in Angstrom.
PRIMCOORD
 10 1
Dy     1.30896001570594     1.30896001570594     1.30896001570594
Dy     3.92688004711784     3.92688004711784     1.30896001570594
Dy     3.92688004711784     1.30896001570594     3.92688004711784
Dy     1.30896001570594     3.92688004711784     3.92688004711784
O     2.61792003141189     0.00000000000000     0.00000000000000
O     0.00000000000000     2.61792003141189     0.00000000000000
O     0.00000000000000     0.00000000000000     2.61792003141189
O     2.61792003141189     2.61792003141189     0.00000000000000
O     2.61792003141189     0.00000000000000     2.61792003141189
O     0.00000000000000     2.61792003141189     2.61792003141189