CRYSTAL
# Primitive lattice vectors in Angstrom
PRIMVEC
 4.12664577982863 0.00000000000000 0.00000000000000
 -0.00000000000000 4.12664577982863 0.00000000000000
 0.00000000000000 0.00000000000000 4.12664577982863
# Cartesian coordinates in Angstrom.
PRIMCOORD
 4 1
Er     0.00000000000000     0.00000000000000     0.00000000000000
O     2.06332288991431     0.00000000000000     0.00000000000000
O     0.00000000000000     2.06332288991431     0.00000000000000
O     0.00000000000000     0.00000000000000     2.06332288991431