CRYSTAL
# Primitive lattice vectors in Angstrom
PRIMVEC
 5.30827437533438 0.00000000000000 0.00000000000000
 -0.00000000000000 5.30827437533438 0.00000000000000
 0.00000000000000 0.00000000000000 5.30827437533438
# Cartesian coordinates in Angstrom.
PRIMCOORD
 14 1
Er     0.00000000000000     0.00000000000000     0.00000000000000
Er     2.65413718766719     2.65413718766719     0.00000000000000
Er     2.65413718766719     0.00000000000000     2.65413718766719
Er     0.00000000000000     2.65413718766719     2.65413718766719
O     2.65413718766719     0.00000000000000     0.00000000000000
O     0.00000000000000     2.65413718766719     0.00000000000000
O     0.00000000000000     0.00000000000000     2.65413718766719
O     2.65413718766719     2.65413718766719     2.65413718766719
O     3.98120578150078     3.98120578150078     1.32706859383359
O     3.98120578150078     1.32706859383359     3.98120578150078
O     1.32706859383359     3.98120578150078     3.98120578150078
O     3.98120578150078     1.32706859383359     1.32706859383359
O     1.32706859383359     3.98120578150078     1.32706859383359
O     1.32706859383359     1.32706859383359     3.98120578150078