CRYSTAL
# Primitive lattice vectors in Angstrom
PRIMVEC
 5.21926063970518 0.00000000000000 0.00000000000000
 -0.00000000000000 5.21926063970518 0.00000000000000
 0.00000000000000 0.00000000000000 5.21926063970518
# Cartesian coordinates in Angstrom.
PRIMCOORD
 10 1
Er     1.30481515992629     1.30481515992629     1.30481515992629
Er     3.91444547977889     3.91444547977889     1.30481515992629
Er     3.91444547977889     1.30481515992629     3.91444547977889
Er     1.30481515992629     3.91444547977889     3.91444547977889
O     2.60963031985260     0.00000000000000     0.00000000000000
O     0.00000000000000     2.60963031985260     0.00000000000000
O     0.00000000000000     0.00000000000000     2.60963031985260
O     2.60963031985260     2.60963031985260     0.00000000000000
O     2.60963031985260     0.00000000000000     2.60963031985260
O     0.00000000000000     2.60963031985260     2.60963031985260