CRYSTAL
# Primitive lattice vectors in Angstrom
PRIMVEC
 5.27343545512301 0.00000000000000 0.00000000000000
 -0.00000000000000 5.27343545512301 0.00000000000000
 0.00000000000000 0.00000000000000 5.27343545512301
# Cartesian coordinates in Angstrom.
PRIMCOORD
 14 1
Es     0.00000000000000     0.00000000000000     0.00000000000000
Es     2.63671772756150     2.63671772756150     0.00000000000000
Es     2.63671772756150     0.00000000000000     2.63671772756150
Es     0.00000000000000     2.63671772756150     2.63671772756150
O     2.63671772756150     0.00000000000000     0.00000000000000
O     0.00000000000000     2.63671772756150     0.00000000000000
O     0.00000000000000     0.00000000000000     2.63671772756150
O     2.63671772756150     2.63671772756150     2.63671772756150
O     3.95507659134225     3.95507659134225     1.31835886378075
O     3.95507659134225     1.31835886378075     3.95507659134225
O     1.31835886378075     3.95507659134225     3.95507659134225
O     3.95507659134225     1.31835886378075     1.31835886378075
O     1.31835886378075     3.95507659134225     1.31835886378075
O     1.31835886378075     1.31835886378075     3.95507659134225