CRYSTAL
# Primitive lattice vectors in Angstrom
PRIMVEC
 5.21428313966179 0.00000000000000 0.00000000000000
 -0.00000000000000 5.21428313966179 0.00000000000000
 0.00000000000000 0.00000000000000 5.21428313966179
# Cartesian coordinates in Angstrom.
PRIMCOORD
 10 1
Es     1.30357078491544     1.30357078491544     1.30357078491544
Es     3.91071235474634     3.91071235474634     1.30357078491544
Es     3.91071235474634     1.30357078491544     3.91071235474634
Es     1.30357078491544     3.91071235474634     3.91071235474634
O     2.60714156983090     0.00000000000000     0.00000000000000
O     0.00000000000000     2.60714156983090     0.00000000000000
O     0.00000000000000     0.00000000000000     2.60714156983090
O     2.60714156983090     2.60714156983090     0.00000000000000
O     2.60714156983090     0.00000000000000     2.60714156983090
O     0.00000000000000     2.60714156983090     2.60714156983090