CRYSTAL
# Primitive lattice vectors in Angstrom
PRIMVEC
 5.31556929768628 0.00000000000000 0.00000000000000
 -0.00000000000000 5.31556929768628 0.00000000000000
 0.00000000000000 0.00000000000000 5.31556929768628
# Cartesian coordinates in Angstrom.
PRIMCOORD
 14 1
Eu     0.00000000000000     0.00000000000000     0.00000000000000
Eu     2.65778464884314     2.65778464884314     0.00000000000000
Eu     2.65778464884314     0.00000000000000     2.65778464884314
Eu     0.00000000000000     2.65778464884314     2.65778464884314
O     2.65778464884314     0.00000000000000     0.00000000000000
O     0.00000000000000     2.65778464884314     0.00000000000000
O     0.00000000000000     0.00000000000000     2.65778464884314
O     2.65778464884314     2.65778464884314     2.65778464884314
O     3.98667697326471     3.98667697326471     1.32889232442157
O     3.98667697326471     1.32889232442157     3.98667697326471
O     1.32889232442157     3.98667697326471     3.98667697326471
O     3.98667697326471     1.32889232442157     1.32889232442157
O     1.32889232442157     3.98667697326471     1.32889232442157
O     1.32889232442157     1.32889232442157     3.98667697326471