CRYSTAL
# Primitive lattice vectors in Angstrom
PRIMVEC
 5.27532151002156 0.00000000000000 0.00000000000000
 -0.00000000000000 5.27532151002156 0.00000000000000
 0.00000000000000 0.00000000000000 5.27532151002156
# Cartesian coordinates in Angstrom.
PRIMCOORD
 10 1
Eu     1.31883037750539     1.31883037750539     1.31883037750539
Eu     3.95649113251618     3.95649113251618     1.31883037750539
Eu     3.95649113251618     1.31883037750539     3.95649113251618
Eu     1.31883037750539     3.95649113251618     3.95649113251618
O     2.63766075501079     0.00000000000000     0.00000000000000
O     0.00000000000000     2.63766075501079     0.00000000000000
O     0.00000000000000     0.00000000000000     2.63766075501079
O     2.63766075501079     2.63766075501079     0.00000000000000
O     2.63766075501079     0.00000000000000     2.63766075501079
O     0.00000000000000     2.63766075501079     2.63766075501079