CRYSTAL
# Primitive lattice vectors in Angstrom
PRIMVEC
 4.09052976358807 0.00000000000000 0.00000000000000
 -0.00000000000000 4.09052976358807 0.00000000000000
 0.00000000000000 0.00000000000000 4.09052976358807
# Cartesian coordinates in Angstrom.
PRIMCOORD
 4 1
Eu     0.00000000000000     0.00000000000000     0.00000000000000
O     2.04526488179403     0.00000000000000     0.00000000000000
O     0.00000000000000     2.04526488179403     0.00000000000000
O     0.00000000000000     0.00000000000000     2.04526488179403