CRYSTAL
# Primitive lattice vectors in Angstrom
PRIMVEC
 4.73983442393013 0.00000000000000 0.00000000000000
 -0.00000000000000 4.73983442393013 0.00000000000000
 0.00000000000000 0.00000000000000 4.73983442393013
# Cartesian coordinates in Angstrom.
PRIMCOORD
 10 1
O     2.36991721196507     0.00000000000000     0.00000000000000
O     0.00000000000000     2.36991721196507     0.00000000000000
O     0.00000000000000     0.00000000000000     2.36991721196507
O     2.36991721196507     2.36991721196507     0.00000000000000
O     2.36991721196507     0.00000000000000     2.36991721196507
O     0.00000000000000     2.36991721196507     2.36991721196507
F     1.18495860598253     1.18495860598253     1.18495860598253
F     3.55487581794760     3.55487581794760     1.18495860598253
F     3.55487581794760     1.18495860598253     3.55487581794760
F     1.18495860598253     3.55487581794760     3.55487581794760