CRYSTAL
# Primitive lattice vectors in Angstrom
PRIMVEC
 4.85432705418322 0.00000000000000 0.00000000000000
 -0.00000000000000 4.85432705418322 0.00000000000000
 0.00000000000000 0.00000000000000 4.85432705418322
# Cartesian coordinates in Angstrom.
PRIMCOORD
 14 1
O     2.42716352709161     0.00000000000000     0.00000000000000
O     0.00000000000000     2.42716352709161     0.00000000000000
O     0.00000000000000     0.00000000000000     2.42716352709161
O     2.42716352709161     2.42716352709161     2.42716352709161
O     3.64074529063742     3.64074529063742     1.21358176354581
O     3.64074529063742     1.21358176354581     3.64074529063742
O     1.21358176354581     3.64074529063742     3.64074529063742
O     3.64074529063742     1.21358176354581     1.21358176354581
O     1.21358176354581     3.64074529063742     1.21358176354581
O     1.21358176354581     1.21358176354581     3.64074529063742
F     0.00000000000000     0.00000000000000     0.00000000000000
F     2.42716352709161     2.42716352709161     0.00000000000000
F     2.42716352709161     0.00000000000000     2.42716352709161
F     0.00000000000000     2.42716352709161     2.42716352709161