CRYSTAL
# Primitive lattice vectors in Angstrom
PRIMVEC
 3.70102056362322 0.00000000000000 0.00000000000000
 -0.00000000000000 3.70102056362322 0.00000000000000
 0.00000000000000 0.00000000000000 3.70102056362322
# Cartesian coordinates in Angstrom.
PRIMCOORD
 4 1
O     1.85051028181161     0.00000000000000     0.00000000000000
O     0.00000000000000     1.85051028181161     0.00000000000000
O     0.00000000000000     0.00000000000000     1.85051028181161
F     0.00000000000000     0.00000000000000     0.00000000000000