CRYSTAL
# Primitive lattice vectors in Angstrom
PRIMVEC
 4.43954831186351 0.00000000000000 0.00000000000000
 -0.00000000000000 4.43954831186351 0.00000000000000
 0.00000000000000 0.00000000000000 4.43954831186351
# Cartesian coordinates in Angstrom.
PRIMCOORD
 10 1
Fe     1.10988707796588     1.10988707796588     1.10988707796588
Fe     3.32966123389763     3.32966123389763     1.10988707796588
Fe     3.32966123389763     1.10988707796588     3.32966123389763
Fe     1.10988707796588     3.32966123389763     3.32966123389763
O     2.21977415593176     0.00000000000000     0.00000000000000
O     0.00000000000000     2.21977415593176     0.00000000000000
O     0.00000000000000     0.00000000000000     2.21977415593176
O     2.21977415593176     2.21977415593176     0.00000000000000
O     2.21977415593176     0.00000000000000     2.21977415593176
O     0.00000000000000     2.21977415593176     2.21977415593176