CRYSTAL
# Primitive lattice vectors in Angstrom
PRIMVEC
 4.80551248507264 0.00000000000000 0.00000000000000
 -0.00000000000000 4.80551248507264 0.00000000000000
 0.00000000000000 0.00000000000000 4.80551248507264
# Cartesian coordinates in Angstrom.
PRIMCOORD
 14 1
Fe     0.00000000000000     0.00000000000000     0.00000000000000
Fe     2.40275624253632     2.40275624253632     0.00000000000000
Fe     2.40275624253632     0.00000000000000     2.40275624253632
Fe     0.00000000000000     2.40275624253632     2.40275624253632
O     2.40275624253632     0.00000000000000     0.00000000000000
O     0.00000000000000     2.40275624253632     0.00000000000000
O     0.00000000000000     0.00000000000000     2.40275624253632
O     2.40275624253632     2.40275624253632     2.40275624253632
O     3.60413436380448     3.60413436380448     1.20137812126816
O     3.60413436380448     1.20137812126816     3.60413436380448
O     1.20137812126816     3.60413436380448     3.60413436380448
O     3.60413436380448     1.20137812126816     1.20137812126816
O     1.20137812126816     3.60413436380448     1.20137812126816
O     1.20137812126816     1.20137812126816     3.60413436380448