CRYSTAL
# Primitive lattice vectors in Angstrom
PRIMVEC
 3.54427121120857 0.00000000000000 0.00000000000000
 -0.00000000000000 3.54427121120857 0.00000000000000
 0.00000000000000 0.00000000000000 3.54427121120857
# Cartesian coordinates in Angstrom.
PRIMCOORD
 4 1
Fe     0.00000000000000     0.00000000000000     0.00000000000000
O     1.77213560560428     0.00000000000000     0.00000000000000
O     0.00000000000000     1.77213560560428     0.00000000000000
O     0.00000000000000     0.00000000000000     1.77213560560428