CRYSTAL
# Primitive lattice vectors in Angstrom
PRIMVEC
 5.30787694481891 0.00000000000000 0.00000000000000
 -0.00000000000000 5.30787694481891 0.00000000000000
 0.00000000000000 0.00000000000000 5.30787694481891
# Cartesian coordinates in Angstrom.
PRIMCOORD
 14 1
Fm     0.00000000000000     0.00000000000000     0.00000000000000
Fm     2.65393847240945     2.65393847240945     0.00000000000000
Fm     2.65393847240945     0.00000000000000     2.65393847240945
Fm     0.00000000000000     2.65393847240945     2.65393847240945
O     2.65393847240945     0.00000000000000     0.00000000000000
O     0.00000000000000     2.65393847240945     0.00000000000000
O     0.00000000000000     0.00000000000000     2.65393847240945
O     2.65393847240945     2.65393847240945     2.65393847240945
O     3.98090770861418     3.98090770861418     1.32696923620473
O     3.98090770861418     1.32696923620473     3.98090770861418
O     1.32696923620473     3.98090770861418     3.98090770861418
O     3.98090770861418     1.32696923620473     1.32696923620473
O     1.32696923620473     3.98090770861418     1.32696923620473
O     1.32696923620473     1.32696923620473     3.98090770861418