CRYSTAL
# Primitive lattice vectors in Angstrom
PRIMVEC
 4.08092632824756 0.00000000000000 0.00000000000000
 -0.00000000000000 4.08092632824756 0.00000000000000
 0.00000000000000 0.00000000000000 4.08092632824756
# Cartesian coordinates in Angstrom.
PRIMCOORD
 4 1
Fm     0.00000000000000     0.00000000000000     0.00000000000000
O     2.04046316412377     0.00000000000000     0.00000000000000
O     0.00000000000000     2.04046316412377     0.00000000000000
O     0.00000000000000     0.00000000000000     2.04046316412377