CRYSTAL
# Primitive lattice vectors in Angstrom
PRIMVEC
 5.24531375657253 0.00000000000000 0.00000000000000
 -0.00000000000000 5.24531375657253 0.00000000000000
 0.00000000000000 0.00000000000000 5.24531375657253
# Cartesian coordinates in Angstrom.
PRIMCOORD
 10 1
Fm     1.31132843914313     1.31132843914313     1.31132843914313
Fm     3.93398531742940     3.93398531742940     1.31132843914313
Fm     3.93398531742940     1.31132843914313     3.93398531742940
Fm     1.31132843914313     3.93398531742940     3.93398531742940
O     2.62265687828627     0.00000000000000     0.00000000000000
O     0.00000000000000     2.62265687828627     0.00000000000000
O     0.00000000000000     0.00000000000000     2.62265687828627
O     2.62265687828627     2.62265687828627     0.00000000000000
O     2.62265687828627     0.00000000000000     2.62265687828627
O     0.00000000000000     2.62265687828627     2.62265687828627