CRYSTAL
# Primitive lattice vectors in Angstrom
PRIMVEC
 4.23751370160603 0.00000000000000 0.00000000000000
 -0.00000000000000 4.23751370160603 0.00000000000000
 0.00000000000000 0.00000000000000 4.23751370160603
# Cartesian coordinates in Angstrom.
PRIMCOORD
 4 1
Fr     0.00000000000000     0.00000000000000     0.00000000000000
O     2.11875685080301     0.00000000000000     0.00000000000000
O     0.00000000000000     2.11875685080301     0.00000000000000
O     0.00000000000000     0.00000000000000     2.11875685080301