CRYSTAL
# Primitive lattice vectors in Angstrom
PRIMVEC
 5.90878439041847 0.00000000000000 0.00000000000000
 -0.00000000000000 5.90878439041847 0.00000000000000
 0.00000000000000 0.00000000000000 5.90878439041847
# Cartesian coordinates in Angstrom.
PRIMCOORD
 14 1
Fr     0.00000000000000     0.00000000000000     0.00000000000000
Fr     2.95439219520924     2.95439219520924     0.00000000000000
Fr     2.95439219520924     0.00000000000000     2.95439219520924
Fr     0.00000000000000     2.95439219520924     2.95439219520924
O     2.95439219520924     0.00000000000000     0.00000000000000
O     0.00000000000000     2.95439219520924     0.00000000000000
O     0.00000000000000     0.00000000000000     2.95439219520924
O     2.95439219520924     2.95439219520924     2.95439219520924
O     4.43158829281385     4.43158829281385     1.47719609760462
O     4.43158829281385     1.47719609760462     4.43158829281385
O     1.47719609760462     4.43158829281385     4.43158829281385
O     4.43158829281385     1.47719609760462     1.47719609760462
O     1.47719609760462     4.43158829281385     1.47719609760462
O     1.47719609760462     1.47719609760462     4.43158829281385