CRYSTAL
# Primitive lattice vectors in Angstrom
PRIMVEC
 6.20230012923673 0.00000000000000 0.00000000000000
 -0.00000000000000 6.20230012923673 0.00000000000000
 0.00000000000000 0.00000000000000 6.20230012923673
# Cartesian coordinates in Angstrom.
PRIMCOORD
 10 1
Fr     1.55057503230918     1.55057503230918     1.55057503230918
Fr     4.65172509692755     4.65172509692755     1.55057503230918
Fr     4.65172509692755     1.55057503230918     4.65172509692755
Fr     1.55057503230918     4.65172509692755     4.65172509692755
O     3.10115006461837     0.00000000000000     0.00000000000000
O     0.00000000000000     3.10115006461837     0.00000000000000
O     0.00000000000000     0.00000000000000     3.10115006461837
O     3.10115006461837     3.10115006461837     0.00000000000000
O     3.10115006461837     0.00000000000000     3.10115006461837
O     0.00000000000000     3.10115006461837     3.10115006461837