CRYSTAL
# Primitive lattice vectors in Angstrom
PRIMVEC
 5.06196171233262 0.00000000000000 0.00000000000000
 -0.00000000000000 5.06196171233262 0.00000000000000
 0.00000000000000 0.00000000000000 5.06196171233262
# Cartesian coordinates in Angstrom.
PRIMCOORD
 14 1
Ga     0.00000000000000     0.00000000000000     0.00000000000000
Ga     2.53098085616631     2.53098085616631     0.00000000000000
Ga     2.53098085616631     0.00000000000000     2.53098085616631
Ga     0.00000000000000     2.53098085616631     2.53098085616631
O     2.53098085616631     0.00000000000000     0.00000000000000
O     0.00000000000000     2.53098085616631     0.00000000000000
O     0.00000000000000     0.00000000000000     2.53098085616631
O     2.53098085616631     2.53098085616631     2.53098085616631
O     3.79647128424946     3.79647128424946     1.26549042808315
O     3.79647128424946     1.26549042808315     3.79647128424946
O     1.26549042808315     3.79647128424946     3.79647128424946
O     3.79647128424946     1.26549042808315     1.26549042808315
O     1.26549042808315     3.79647128424946     1.26549042808315
O     1.26549042808315     1.26549042808315     3.79647128424946