CRYSTAL
# Primitive lattice vectors in Angstrom
PRIMVEC
 4.74666876714049 0.00000000000000 0.00000000000000
 -0.00000000000000 4.74666876714049 0.00000000000000
 0.00000000000000 0.00000000000000 4.74666876714049
# Cartesian coordinates in Angstrom.
PRIMCOORD
 10 1
Ga     1.18666719178512     1.18666719178512     1.18666719178512
Ga     3.56000157535537     3.56000157535537     1.18666719178512
Ga     3.56000157535537     1.18666719178512     3.56000157535537
Ga     1.18666719178512     3.56000157535537     3.56000157535537
O     2.37333438357025     0.00000000000000     0.00000000000000
O     0.00000000000000     2.37333438357025     0.00000000000000
O     0.00000000000000     0.00000000000000     2.37333438357025
O     2.37333438357025     2.37333438357025     0.00000000000000
O     2.37333438357025     0.00000000000000     2.37333438357025
O     0.00000000000000     2.37333438357025     2.37333438357025