CRYSTAL
# Primitive lattice vectors in Angstrom
PRIMVEC
 3.81359243016226 0.00000000000000 0.00000000000000
 -0.00000000000000 3.81359243016226 0.00000000000000
 0.00000000000000 0.00000000000000 3.81359243016226
# Cartesian coordinates in Angstrom.
PRIMCOORD
 4 1
Ga     0.00000000000000     0.00000000000000     0.00000000000000
O     1.90679621508112     0.00000000000000     0.00000000000000
O     0.00000000000000     1.90679621508112     0.00000000000000
O     0.00000000000000     0.00000000000000     1.90679621508112