CRYSTAL
# Primitive lattice vectors in Angstrom
PRIMVEC
 5.31000700599057 0.00000000000000 0.00000000000000
 -0.00000000000000 5.31000700599057 0.00000000000000
 0.00000000000000 0.00000000000000 5.31000700599057
# Cartesian coordinates in Angstrom.
PRIMCOORD
 14 1
Gd     0.00000000000000     0.00000000000000     0.00000000000000
Gd     2.65500350299529     2.65500350299529     0.00000000000000
Gd     2.65500350299529     0.00000000000000     2.65500350299529
Gd     0.00000000000000     2.65500350299529     2.65500350299529
O     2.65500350299529     0.00000000000000     0.00000000000000
O     0.00000000000000     2.65500350299529     0.00000000000000
O     0.00000000000000     0.00000000000000     2.65500350299529
O     2.65500350299529     2.65500350299529     2.65500350299529
O     3.98250525449293     3.98250525449293     1.32750175149764
O     3.98250525449293     1.32750175149764     3.98250525449293
O     1.32750175149764     3.98250525449293     3.98250525449293
O     3.98250525449293     1.32750175149764     1.32750175149764
O     1.32750175149764     3.98250525449293     1.32750175149764
O     1.32750175149764     1.32750175149764     3.98250525449293