CRYSTAL
# Primitive lattice vectors in Angstrom
PRIMVEC
 5.26013387272909 0.00000000000000 0.00000000000000
 -0.00000000000000 5.26013387272909 0.00000000000000
 0.00000000000000 0.00000000000000 5.26013387272909
# Cartesian coordinates in Angstrom.
PRIMCOORD
 10 1
Gd     1.31503346818227     1.31503346818227     1.31503346818227
Gd     3.94510040454682     3.94510040454682     1.31503346818227
Gd     3.94510040454682     1.31503346818227     3.94510040454682
Gd     1.31503346818227     3.94510040454682     3.94510040454682
O     2.63006693636455     0.00000000000000     0.00000000000000
O     0.00000000000000     2.63006693636455     0.00000000000000
O     0.00000000000000     0.00000000000000     2.63006693636455
O     2.63006693636455     2.63006693636455     0.00000000000000
O     2.63006693636455     0.00000000000000     2.63006693636455
O     0.00000000000000     2.63006693636455     2.63006693636455