CRYSTAL
# Primitive lattice vectors in Angstrom
PRIMVEC
 5.09357247696967 0.00000000000000 0.00000000000000
 -0.00000000000000 5.09357247696967 0.00000000000000
 0.00000000000000 0.00000000000000 5.09357247696967
# Cartesian coordinates in Angstrom.
PRIMCOORD
 14 1
Ge     0.00000000000000     0.00000000000000     0.00000000000000
Ge     2.54678623848484     2.54678623848484     0.00000000000000
Ge     2.54678623848484     0.00000000000000     2.54678623848484
Ge     0.00000000000000     2.54678623848484     2.54678623848484
O     2.54678623848484     0.00000000000000     0.00000000000000
O     0.00000000000000     2.54678623848484     0.00000000000000
O     0.00000000000000     0.00000000000000     2.54678623848484
O     2.54678623848484     2.54678623848484     2.54678623848484
O     3.82017935772725     3.82017935772725     1.27339311924242
O     3.82017935772725     1.27339311924242     3.82017935772725
O     1.27339311924242     3.82017935772725     3.82017935772725
O     3.82017935772725     1.27339311924242     1.27339311924242
O     1.27339311924242     3.82017935772725     1.27339311924242
O     1.27339311924242     1.27339311924242     3.82017935772725