CRYSTAL
# Primitive lattice vectors in Angstrom
PRIMVEC
 4.87785266471304 0.00000000000000 0.00000000000000
 -0.00000000000000 4.87785266471304 0.00000000000000
 0.00000000000000 0.00000000000000 4.87785266471304
# Cartesian coordinates in Angstrom.
PRIMCOORD
 10 1
Ge     1.21946316617826     1.21946316617826     1.21946316617826
Ge     3.65838949853478     3.65838949853478     1.21946316617826
Ge     3.65838949853478     1.21946316617826     3.65838949853478
Ge     1.21946316617826     3.65838949853478     3.65838949853478
O     2.43892633235652     0.00000000000000     0.00000000000000
O     0.00000000000000     2.43892633235652     0.00000000000000
O     0.00000000000000     0.00000000000000     2.43892633235652
O     2.43892633235652     2.43892633235652     0.00000000000000
O     2.43892633235652     0.00000000000000     2.43892633235652
O     0.00000000000000     2.43892633235652     2.43892633235652