CRYSTAL
# Primitive lattice vectors in Angstrom
PRIMVEC
 4.61773865085366 0.00000000000000 0.00000000000000
 -0.00000000000000 4.61773865085366 0.00000000000000
 0.00000000000000 0.00000000000000 4.61773865085366
# Cartesian coordinates in Angstrom.
PRIMCOORD
 14 1
H     0.00000000000000     0.00000000000000     0.00000000000000
H     2.30886932542683     2.30886932542683     0.00000000000000
H     2.30886932542683     0.00000000000000     2.30886932542683
H     0.00000000000000     2.30886932542683     2.30886932542683
O     2.30886932542683     0.00000000000000     0.00000000000000
O     0.00000000000000     2.30886932542683     0.00000000000000
O     0.00000000000000     0.00000000000000     2.30886932542683
O     2.30886932542683     2.30886932542683     2.30886932542683
O     3.46330398814024     3.46330398814024     1.15443466271341
O     3.46330398814024     1.15443466271341     3.46330398814024
O     1.15443466271341     3.46330398814024     3.46330398814024
O     3.46330398814024     1.15443466271341     1.15443466271341
O     1.15443466271341     3.46330398814024     1.15443466271341
O     1.15443466271341     1.15443466271341     3.46330398814024