CRYSTAL
# Primitive lattice vectors in Angstrom
PRIMVEC
 3.91288280261638 0.00000000000000 0.00000000000000
 -0.00000000000000 3.91288280261638 0.00000000000000
 0.00000000000000 0.00000000000000 3.91288280261638
# Cartesian coordinates in Angstrom.
PRIMCOORD
 10 1
H     0.97822070065409     0.97822070065409     0.97822070065409
H     2.93466210196229     2.93466210196229     0.97822070065409
H     2.93466210196229     0.97822070065409     2.93466210196229
H     0.97822070065409     2.93466210196229     2.93466210196229
O     1.95644140130819     0.00000000000000     0.00000000000000
O     0.00000000000000     1.95644140130819     0.00000000000000
O     0.00000000000000     0.00000000000000     1.95644140130819
O     1.95644140130819     1.95644140130819     0.00000000000000
O     1.95644140130819     0.00000000000000     1.95644140130819
O     0.00000000000000     1.95644140130819     1.95644140130819