CRYSTAL
# Primitive lattice vectors in Angstrom
PRIMVEC
 3.39663520722110 0.00000000000000 0.00000000000000
 -0.00000000000000 3.39663520722110 0.00000000000000
 0.00000000000000 0.00000000000000 3.39663520722110
# Cartesian coordinates in Angstrom.
PRIMCOORD
 4 1
He     0.00000000000000     0.00000000000000     0.00000000000000
O     1.69831760361054     0.00000000000000     0.00000000000000
O     0.00000000000000     1.69831760361054     0.00000000000000
O     0.00000000000000     0.00000000000000     1.69831760361054