CRYSTAL
# Primitive lattice vectors in Angstrom
PRIMVEC
 4.42469434038299 0.00000000000000 0.00000000000000
 -0.00000000000000 4.42469434038299 0.00000000000000
 0.00000000000000 0.00000000000000 4.42469434038299
# Cartesian coordinates in Angstrom.
PRIMCOORD
 10 1
He     1.10617358509575     1.10617358509575     1.10617358509575
He     3.31852075528724     3.31852075528724     1.10617358509575
He     3.31852075528724     1.10617358509575     3.31852075528724
He     1.10617358509575     3.31852075528724     3.31852075528724
O     2.21234717019150     0.00000000000000     0.00000000000000
O     0.00000000000000     2.21234717019150     0.00000000000000
O     0.00000000000000     0.00000000000000     2.21234717019150
O     2.21234717019150     2.21234717019150     0.00000000000000
O     2.21234717019150     0.00000000000000     2.21234717019150
O     0.00000000000000     2.21234717019150     2.21234717019150