CRYSTAL
# Primitive lattice vectors in Angstrom
PRIMVEC
 4.73298681583687 0.00000000000000 0.00000000000000
 -0.00000000000000 4.73298681583687 0.00000000000000
 0.00000000000000 0.00000000000000 4.73298681583687
# Cartesian coordinates in Angstrom.
PRIMCOORD
 14 1
He     0.00000000000000     0.00000000000000     0.00000000000000
He     2.36649340791844     2.36649340791844     0.00000000000000
He     2.36649340791844     0.00000000000000     2.36649340791844
He     0.00000000000000     2.36649340791844     2.36649340791844
O     2.36649340791844     0.00000000000000     0.00000000000000
O     0.00000000000000     2.36649340791844     0.00000000000000
O     0.00000000000000     0.00000000000000     2.36649340791844
O     2.36649340791844     2.36649340791844     2.36649340791844
O     3.54974011187765     3.54974011187765     1.18324670395922
O     3.54974011187765     1.18324670395922     3.54974011187765
O     1.18324670395922     3.54974011187765     3.54974011187765
O     3.54974011187765     1.18324670395922     1.18324670395922
O     1.18324670395922     3.54974011187765     1.18324670395922
O     1.18324670395922     1.18324670395922     3.54974011187765