CRYSTAL
# Primitive lattice vectors in Angstrom
PRIMVEC
 5.16374216745056 0.00000000000000 0.00000000000000
 -0.00000000000000 5.16374216745056 0.00000000000000
 0.00000000000000 0.00000000000000 5.16374216745056
# Cartesian coordinates in Angstrom.
PRIMCOORD
 14 1
Hf     0.00000000000000     0.00000000000000     0.00000000000000
Hf     2.58187108372528     2.58187108372528     0.00000000000000
Hf     2.58187108372528     0.00000000000000     2.58187108372528
Hf     0.00000000000000     2.58187108372528     2.58187108372528
O     2.58187108372528     0.00000000000000     0.00000000000000
O     0.00000000000000     2.58187108372528     0.00000000000000
O     0.00000000000000     0.00000000000000     2.58187108372528
O     2.58187108372528     2.58187108372528     2.58187108372528
O     3.87280662558792     3.87280662558792     1.29093554186264
O     3.87280662558792     1.29093554186264     3.87280662558792
O     1.29093554186264     3.87280662558792     3.87280662558792
O     3.87280662558792     1.29093554186264     1.29093554186264
O     1.29093554186264     3.87280662558792     1.29093554186264
O     1.29093554186264     1.29093554186264     3.87280662558792