CRYSTAL
# Primitive lattice vectors in Angstrom
PRIMVEC
 4.09620062820583 0.00000000000000 0.00000000000000
 -0.00000000000000 4.09620062820583 0.00000000000000
 0.00000000000000 0.00000000000000 4.09620062820583
# Cartesian coordinates in Angstrom.
PRIMCOORD
 4 1
Hf     0.00000000000000     0.00000000000000     0.00000000000000
O     2.04810031410291     0.00000000000000     0.00000000000000
O     0.00000000000000     2.04810031410291     0.00000000000000
O     0.00000000000000     0.00000000000000     2.04810031410291