CRYSTAL
# Primitive lattice vectors in Angstrom
PRIMVEC
 4.98998112129790 0.00000000000000 0.00000000000000
 -0.00000000000000 4.98998112129790 0.00000000000000
 0.00000000000000 0.00000000000000 4.98998112129790
# Cartesian coordinates in Angstrom.
PRIMCOORD
 10 1
Hf     1.24749528032447     1.24749528032447     1.24749528032447
Hf     3.74248584097343     3.74248584097343     1.24749528032447
Hf     3.74248584097343     1.24749528032447     3.74248584097343
Hf     1.24749528032447     3.74248584097343     3.74248584097343
O     2.49499056064896     0.00000000000000     0.00000000000000
O     0.00000000000000     2.49499056064896     0.00000000000000
O     0.00000000000000     0.00000000000000     2.49499056064896
O     2.49499056064896     2.49499056064896     0.00000000000000
O     2.49499056064896     0.00000000000000     2.49499056064896
O     0.00000000000000     2.49499056064896     2.49499056064896