CRYSTAL
# Primitive lattice vectors in Angstrom
PRIMVEC
 4.11454472932251 0.00000000000000 0.00000000000000
 -0.00000000000000 4.11454472932251 0.00000000000000
 0.00000000000000 0.00000000000000 4.11454472932251
# Cartesian coordinates in Angstrom.
PRIMCOORD
 4 1
Hg     0.00000000000000     0.00000000000000     0.00000000000000
O     2.05727236466125     0.00000000000000     0.00000000000000
O     0.00000000000000     2.05727236466125     0.00000000000000
O     0.00000000000000     0.00000000000000     2.05727236466125