CRYSTAL
# Primitive lattice vectors in Angstrom
PRIMVEC
 5.25218808085931 0.00000000000000 0.00000000000000
 -0.00000000000000 5.25218808085931 0.00000000000000
 0.00000000000000 0.00000000000000 5.25218808085931
# Cartesian coordinates in Angstrom.
PRIMCOORD
 10 1
Hg     1.31304702021482     1.31304702021482     1.31304702021482
Hg     3.93914106064448     3.93914106064448     1.31304702021482
Hg     3.93914106064448     1.31304702021482     3.93914106064448
Hg     1.31304702021482     3.93914106064448     3.93914106064448
O     2.62609404042966     0.00000000000000     0.00000000000000
O     0.00000000000000     2.62609404042966     0.00000000000000
O     0.00000000000000     0.00000000000000     2.62609404042966
O     2.62609404042966     2.62609404042966     0.00000000000000
O     2.62609404042966     0.00000000000000     2.62609404042966
O     0.00000000000000     2.62609404042966     2.62609404042966