CRYSTAL
# Primitive lattice vectors in Angstrom
PRIMVEC
 5.39392180824547 0.00000000000000 0.00000000000000
 -0.00000000000000 5.39392180824547 0.00000000000000
 0.00000000000000 0.00000000000000 5.39392180824547
# Cartesian coordinates in Angstrom.
PRIMCOORD
 14 1
Hg     0.00000000000000     0.00000000000000     0.00000000000000
Hg     2.69696090412274     2.69696090412274     0.00000000000000
Hg     2.69696090412274     0.00000000000000     2.69696090412274
Hg     0.00000000000000     2.69696090412274     2.69696090412274
O     2.69696090412274     0.00000000000000     0.00000000000000
O     0.00000000000000     2.69696090412274     0.00000000000000
O     0.00000000000000     0.00000000000000     2.69696090412274
O     2.69696090412274     2.69696090412274     2.69696090412274
O     4.04544135618410     4.04544135618410     1.34848045206137
O     4.04544135618410     1.34848045206137     4.04544135618410
O     1.34848045206137     4.04544135618410     4.04544135618410
O     4.04544135618410     1.34848045206137     1.34848045206137
O     1.34848045206137     4.04544135618410     1.34848045206137
O     1.34848045206137     1.34848045206137     4.04544135618410