CRYSTAL
# Primitive lattice vectors in Angstrom
PRIMVEC
 4.10969776253739 0.00000000000000 0.00000000000000
 -0.00000000000000 4.10969776253739 0.00000000000000
 0.00000000000000 0.00000000000000 4.10969776253739
# Cartesian coordinates in Angstrom.
PRIMCOORD
 4 1
Ho     0.00000000000000     0.00000000000000     0.00000000000000
O     2.05484888126869     0.00000000000000     0.00000000000000
O     0.00000000000000     2.05484888126869     0.00000000000000
O     0.00000000000000     0.00000000000000     2.05484888126869