CRYSTAL
# Primitive lattice vectors in Angstrom
PRIMVEC
 5.22650214117156 0.00000000000000 0.00000000000000
 -0.00000000000000 5.22650214117156 0.00000000000000
 0.00000000000000 0.00000000000000 5.22650214117156
# Cartesian coordinates in Angstrom.
PRIMCOORD
 10 1
Ho     1.30662553529289     1.30662553529289     1.30662553529289
Ho     3.91987660587867     3.91987660587867     1.30662553529289
Ho     3.91987660587867     1.30662553529289     3.91987660587867
Ho     1.30662553529289     3.91987660587867     3.91987660587867
O     2.61325107058578     0.00000000000000     0.00000000000000
O     0.00000000000000     2.61325107058578     0.00000000000000
O     0.00000000000000     0.00000000000000     2.61325107058578
O     2.61325107058578     2.61325107058578     0.00000000000000
O     2.61325107058578     0.00000000000000     2.61325107058578
O     0.00000000000000     2.61325107058578     2.61325107058578