CRYSTAL
# Primitive lattice vectors in Angstrom
PRIMVEC
 5.30543699195623 0.00000000000000 0.00000000000000
 -0.00000000000000 5.30543699195623 0.00000000000000
 0.00000000000000 0.00000000000000 5.30543699195623
# Cartesian coordinates in Angstrom.
PRIMCOORD
 14 1
Ho     0.00000000000000     0.00000000000000     0.00000000000000
Ho     2.65271849597811     2.65271849597811     0.00000000000000
Ho     2.65271849597811     0.00000000000000     2.65271849597811
Ho     0.00000000000000     2.65271849597811     2.65271849597811
O     2.65271849597811     0.00000000000000     0.00000000000000
O     0.00000000000000     2.65271849597811     0.00000000000000
O     0.00000000000000     0.00000000000000     2.65271849597811
O     2.65271849597811     2.65271849597811     2.65271849597811
O     3.97907774396717     3.97907774396717     1.32635924798906
O     3.97907774396717     1.32635924798906     3.97907774396717
O     1.32635924798906     3.97907774396717     3.97907774396717
O     3.97907774396717     1.32635924798906     1.32635924798906
O     1.32635924798906     3.97907774396717     1.32635924798906
O     1.32635924798906     1.32635924798906     3.97907774396717