CRYSTAL
# Primitive lattice vectors in Angstrom
PRIMVEC
 5.42848025290194 0.00000000000000 0.00000000000000
 -0.00000000000000 5.42848025290194 0.00000000000000
 0.00000000000000 0.00000000000000 5.42848025290194
# Cartesian coordinates in Angstrom.
PRIMCOORD
 10 1
I     1.35712006322548     1.35712006322548     1.35712006322548
I     4.07136018967646     4.07136018967646     1.35712006322548
I     4.07136018967646     1.35712006322548     4.07136018967646
I     1.35712006322548     4.07136018967646     4.07136018967646
O     2.71424012645097     0.00000000000000     0.00000000000000
O     0.00000000000000     2.71424012645097     0.00000000000000
O     0.00000000000000     0.00000000000000     2.71424012645097
O     2.71424012645097     2.71424012645097     0.00000000000000
O     2.71424012645097     0.00000000000000     2.71424012645097
O     0.00000000000000     2.71424012645097     2.71424012645097