CRYSTAL
# Primitive lattice vectors in Angstrom
PRIMVEC
 5.37666804373956 0.00000000000000 0.00000000000000
 -0.00000000000000 5.37666804373956 0.00000000000000
 0.00000000000000 0.00000000000000 5.37666804373956
# Cartesian coordinates in Angstrom.
PRIMCOORD
 14 1
I     0.00000000000000     0.00000000000000     0.00000000000000
I     2.68833402186978     2.68833402186978     0.00000000000000
I     2.68833402186978     0.00000000000000     2.68833402186978
I     0.00000000000000     2.68833402186978     2.68833402186978
O     2.68833402186978     0.00000000000000     0.00000000000000
O     0.00000000000000     2.68833402186978     0.00000000000000
O     0.00000000000000     0.00000000000000     2.68833402186978
O     2.68833402186978     2.68833402186978     2.68833402186978
O     4.03250103280467     4.03250103280467     1.34416701093489
O     4.03250103280467     1.34416701093489     4.03250103280467
O     1.34416701093489     4.03250103280467     4.03250103280467
O     4.03250103280467     1.34416701093489     1.34416701093489
O     1.34416701093489     4.03250103280467     1.34416701093489
O     1.34416701093489     1.34416701093489     4.03250103280467