CRYSTAL
# Primitive lattice vectors in Angstrom
PRIMVEC
 3.90158007552163 0.00000000000000 0.00000000000000
 -0.00000000000000 3.90158007552163 0.00000000000000
 0.00000000000000 0.00000000000000 3.90158007552163
# Cartesian coordinates in Angstrom.
PRIMCOORD
 4 1
I     0.00000000000000     0.00000000000000     0.00000000000000
O     1.95079003776081     0.00000000000000     0.00000000000000
O     0.00000000000000     1.95079003776081     0.00000000000000
O     0.00000000000000     0.00000000000000     1.95079003776081