CRYSTAL
# Primitive lattice vectors in Angstrom
PRIMVEC
 5.31261558097750 0.00000000000000 0.00000000000000
 -0.00000000000000 5.31261558097750 0.00000000000000
 0.00000000000000 0.00000000000000 5.31261558097750
# Cartesian coordinates in Angstrom.
PRIMCOORD
 14 1
In     0.00000000000000     0.00000000000000     0.00000000000000
In     2.65630779048875     2.65630779048875     0.00000000000000
In     2.65630779048875     0.00000000000000     2.65630779048875
In     0.00000000000000     2.65630779048875     2.65630779048875
O     2.65630779048875     0.00000000000000     0.00000000000000
O     0.00000000000000     2.65630779048875     0.00000000000000
O     0.00000000000000     0.00000000000000     2.65630779048875
O     2.65630779048875     2.65630779048875     2.65630779048875
O     3.98446168573312     3.98446168573312     1.32815389524437
O     3.98446168573312     1.32815389524437     3.98446168573312
O     1.32815389524437     3.98446168573312     3.98446168573312
O     3.98446168573312     1.32815389524437     1.32815389524437
O     1.32815389524437     3.98446168573312     1.32815389524437
O     1.32815389524437     1.32815389524437     3.98446168573312