CRYSTAL
# Primitive lattice vectors in Angstrom
PRIMVEC
 4.16271662059373 0.00000000000000 0.00000000000000
 -0.00000000000000 4.16271662059373 0.00000000000000
 0.00000000000000 0.00000000000000 4.16271662059373
# Cartesian coordinates in Angstrom.
PRIMCOORD
 4 1
In     0.00000000000000     0.00000000000000     0.00000000000000
O     2.08135831029686     0.00000000000000     0.00000000000000
O     0.00000000000000     2.08135831029686     0.00000000000000
O     0.00000000000000     0.00000000000000     2.08135831029686