CRYSTAL
# Primitive lattice vectors in Angstrom
PRIMVEC
 5.13042150953481 0.00000000000000 0.00000000000000
 -0.00000000000000 5.13042150953481 0.00000000000000
 0.00000000000000 0.00000000000000 5.13042150953481
# Cartesian coordinates in Angstrom.
PRIMCOORD
 10 1
In     1.28260537738370     1.28260537738370     1.28260537738370
In     3.84781613215111     3.84781613215111     1.28260537738370
In     3.84781613215111     1.28260537738370     3.84781613215111
In     1.28260537738370     3.84781613215111     3.84781613215111
O     2.56521075476741     0.00000000000000     0.00000000000000
O     0.00000000000000     2.56521075476741     0.00000000000000
O     0.00000000000000     0.00000000000000     2.56521075476741
O     2.56521075476741     2.56521075476741     0.00000000000000
O     2.56521075476741     0.00000000000000     2.56521075476741
O     0.00000000000000     2.56521075476741     2.56521075476741