CRYSTAL
# Primitive lattice vectors in Angstrom
PRIMVEC
 3.74428090803685 0.00000000000000 0.00000000000000
 -0.00000000000000 3.74428090803685 0.00000000000000
 0.00000000000000 0.00000000000000 3.74428090803685
# Cartesian coordinates in Angstrom.
PRIMCOORD
 4 1
Ir     0.00000000000000     0.00000000000000     0.00000000000000
O     1.87214045401842     0.00000000000000     0.00000000000000
O     0.00000000000000     1.87214045401842     0.00000000000000
O     0.00000000000000     0.00000000000000     1.87214045401842