CRYSTAL
# Primitive lattice vectors in Angstrom
PRIMVEC
 4.74889214759909 0.00000000000000 0.00000000000000
 -0.00000000000000 4.74889214759909 0.00000000000000
 0.00000000000000 0.00000000000000 4.74889214759909
# Cartesian coordinates in Angstrom.
PRIMCOORD
 10 1
Ir     1.18722303689977     1.18722303689977     1.18722303689977
Ir     3.56166911069932     3.56166911069932     1.18722303689977
Ir     3.56166911069932     1.18722303689977     3.56166911069932
Ir     1.18722303689977     3.56166911069932     3.56166911069932
O     2.37444607379955     0.00000000000000     0.00000000000000
O     0.00000000000000     2.37444607379955     0.00000000000000
O     0.00000000000000     0.00000000000000     2.37444607379955
O     2.37444607379955     2.37444607379955     0.00000000000000
O     2.37444607379955     0.00000000000000     2.37444607379955
O     0.00000000000000     2.37444607379955     2.37444607379955