CRYSTAL
# Primitive lattice vectors in Angstrom
PRIMVEC
 5.00750244148460 0.00000000000000 0.00000000000000
 -0.00000000000000 5.00750244148460 0.00000000000000
 0.00000000000000 0.00000000000000 5.00750244148460
# Cartesian coordinates in Angstrom.
PRIMCOORD
 14 1
Ir     0.00000000000000     0.00000000000000     0.00000000000000
Ir     2.50375122074230     2.50375122074230     0.00000000000000
Ir     2.50375122074230     0.00000000000000     2.50375122074230
Ir     0.00000000000000     2.50375122074230     2.50375122074230
O     2.50375122074230     0.00000000000000     0.00000000000000
O     0.00000000000000     2.50375122074230     0.00000000000000
O     0.00000000000000     0.00000000000000     2.50375122074230
O     2.50375122074230     2.50375122074230     2.50375122074230
O     3.75562683111345     3.75562683111345     1.25187561037115
O     3.75562683111345     1.25187561037115     3.75562683111345
O     1.25187561037115     3.75562683111345     3.75562683111345
O     3.75562683111345     1.25187561037115     1.25187561037115
O     1.25187561037115     3.75562683111345     1.25187561037115
O     1.25187561037115     1.25187561037115     3.75562683111345