CRYSTAL
# Primitive lattice vectors in Angstrom
PRIMVEC
 5.68713560522426 0.00000000000000 0.00000000000000
 -0.00000000000000 5.68713560522426 0.00000000000000
 0.00000000000000 0.00000000000000 5.68713560522426
# Cartesian coordinates in Angstrom.
PRIMCOORD
 14 1
K     0.00000000000000     0.00000000000000     0.00000000000000
K     2.84356780261213     2.84356780261213     0.00000000000000
K     2.84356780261213     0.00000000000000     2.84356780261213
K     0.00000000000000     2.84356780261213     2.84356780261213
O     2.84356780261213     0.00000000000000     0.00000000000000
O     0.00000000000000     2.84356780261213     0.00000000000000
O     0.00000000000000     0.00000000000000     2.84356780261213
O     2.84356780261213     2.84356780261213     2.84356780261213
O     4.26535170391819     4.26535170391819     1.42178390130606
O     4.26535170391819     1.42178390130606     4.26535170391819
O     1.42178390130606     4.26535170391819     4.26535170391819
O     4.26535170391819     1.42178390130606     1.42178390130606
O     1.42178390130606     4.26535170391819     1.42178390130606
O     1.42178390130606     1.42178390130606     4.26535170391819