CRYSTAL
# Primitive lattice vectors in Angstrom
PRIMVEC
 5.98045417946605 0.00000000000000 0.00000000000000
 -0.00000000000000 5.98045417946605 0.00000000000000
 0.00000000000000 0.00000000000000 5.98045417946605
# Cartesian coordinates in Angstrom.
PRIMCOORD
 10 1
K     1.49511354486651     1.49511354486651     1.49511354486651
K     4.48534063459954     4.48534063459954     1.49511354486651
K     4.48534063459954     1.49511354486651     4.48534063459954
K     1.49511354486651     4.48534063459954     4.48534063459954
O     2.99022708973303     0.00000000000000     0.00000000000000
O     0.00000000000000     2.99022708973303     0.00000000000000
O     0.00000000000000     0.00000000000000     2.99022708973303
O     2.99022708973303     2.99022708973303     0.00000000000000
O     2.99022708973303     0.00000000000000     2.99022708973303
O     0.00000000000000     2.99022708973303     2.99022708973303