CRYSTAL
# Primitive lattice vectors in Angstrom
PRIMVEC
 5.11743871597865 0.00000000000000 0.00000000000000
 -0.00000000000000 5.11743871597865 0.00000000000000
 0.00000000000000 0.00000000000000 5.11743871597865
# Cartesian coordinates in Angstrom.
PRIMCOORD
 4 1
K     0.00000000000000     0.00000000000000     0.00000000000000
O     2.55871935798932     0.00000000000000     0.00000000000000
O     0.00000000000000     2.55871935798932     0.00000000000000
O     0.00000000000000     0.00000000000000     2.55871935798932