CRYSTAL
# Primitive lattice vectors in Angstrom
PRIMVEC
 5.60112367858231 0.00000000000000 0.00000000000000
 -0.00000000000000 5.60112367858231 0.00000000000000
 0.00000000000000 0.00000000000000 5.60112367858231
# Cartesian coordinates in Angstrom.
PRIMCOORD
 14 1
Kr     0.00000000000000     0.00000000000000     0.00000000000000
Kr     2.80056183929115     2.80056183929115     0.00000000000000
Kr     2.80056183929115     0.00000000000000     2.80056183929115
Kr     0.00000000000000     2.80056183929115     2.80056183929115
O     2.80056183929115     0.00000000000000     0.00000000000000
O     0.00000000000000     2.80056183929115     0.00000000000000
O     0.00000000000000     0.00000000000000     2.80056183929115
O     2.80056183929115     2.80056183929115     2.80056183929115
O     4.20084275893673     4.20084275893673     1.40028091964558
O     4.20084275893673     1.40028091964558     4.20084275893673
O     1.40028091964558     4.20084275893673     4.20084275893673
O     4.20084275893673     1.40028091964558     1.40028091964558
O     1.40028091964558     4.20084275893673     1.40028091964558
O     1.40028091964558     1.40028091964558     4.20084275893673