CRYSTAL
# Primitive lattice vectors in Angstrom
PRIMVEC
 4.00024465147615 0.00000000000000 0.00000000000000
 -0.00000000000000 4.00024465147615 0.00000000000000
 0.00000000000000 0.00000000000000 4.00024465147615
# Cartesian coordinates in Angstrom.
PRIMCOORD
 4 1
Kr     0.00000000000000     0.00000000000000     0.00000000000000
O     2.00012232573807     0.00000000000000     0.00000000000000
O     0.00000000000000     2.00012232573807     0.00000000000000
O     0.00000000000000     0.00000000000000     2.00012232573807