CRYSTAL
# Primitive lattice vectors in Angstrom
PRIMVEC
 5.64225284160478 0.00000000000000 0.00000000000000
 -0.00000000000000 5.64225284160478 0.00000000000000
 0.00000000000000 0.00000000000000 5.64225284160478
# Cartesian coordinates in Angstrom.
PRIMCOORD
 10 1
Kr     1.41056321040119     1.41056321040119     1.41056321040119
Kr     4.23168963120358     4.23168963120358     1.41056321040119
Kr     4.23168963120358     1.41056321040119     4.23168963120358
Kr     1.41056321040119     4.23168963120358     4.23168963120358
O     2.82112642080239     0.00000000000000     0.00000000000000
O     0.00000000000000     2.82112642080239     0.00000000000000
O     0.00000000000000     0.00000000000000     2.82112642080239
O     2.82112642080239     2.82112642080239     0.00000000000000
O     2.82112642080239     0.00000000000000     2.82112642080239
O     0.00000000000000     2.82112642080239     2.82112642080239