CRYSTAL
# Primitive lattice vectors in Angstrom
PRIMVEC
 4.46530114647144 0.00000000000000 0.00000000000000
 -0.00000000000000 4.46530114647144 0.00000000000000
 0.00000000000000 0.00000000000000 4.46530114647144
# Cartesian coordinates in Angstrom.
PRIMCOORD
 4 1
La     0.00000000000000     0.00000000000000     0.00000000000000
O     2.23265057323571     0.00000000000000     0.00000000000000
O     0.00000000000000     2.23265057323571     0.00000000000000
O     0.00000000000000     0.00000000000000     2.23265057323571