CRYSTAL
# Primitive lattice vectors in Angstrom
PRIMVEC
 5.60413607546891 0.00000000000000 0.00000000000000
 -0.00000000000000 5.60413607546891 0.00000000000000
 0.00000000000000 0.00000000000000 5.60413607546891
# Cartesian coordinates in Angstrom.
PRIMCOORD
 10 1
La     1.40103401886722     1.40103401886722     1.40103401886722
La     4.20310205660168     4.20310205660168     1.40103401886722
La     4.20310205660168     1.40103401886722     4.20310205660168
La     1.40103401886722     4.20310205660168     4.20310205660168
O     2.80206803773446     0.00000000000000     0.00000000000000
O     0.00000000000000     2.80206803773446     0.00000000000000
O     0.00000000000000     0.00000000000000     2.80206803773446
O     2.80206803773446     2.80206803773446     0.00000000000000
O     2.80206803773446     0.00000000000000     2.80206803773446
O     0.00000000000000     2.80206803773446     2.80206803773446