CRYSTAL
# Primitive lattice vectors in Angstrom
PRIMVEC
 5.66341959134793 0.00000000000000 0.00000000000000
 -0.00000000000000 5.66341959134793 0.00000000000000
 0.00000000000000 0.00000000000000 5.66341959134793
# Cartesian coordinates in Angstrom.
PRIMCOORD
 14 1
La     0.00000000000000     0.00000000000000     0.00000000000000
La     2.83170979567396     2.83170979567396     0.00000000000000
La     2.83170979567396     0.00000000000000     2.83170979567396
La     0.00000000000000     2.83170979567396     2.83170979567396
O     2.83170979567396     0.00000000000000     0.00000000000000
O     0.00000000000000     2.83170979567396     0.00000000000000
O     0.00000000000000     0.00000000000000     2.83170979567396
O     2.83170979567396     2.83170979567396     2.83170979567396
O     4.24756469351095     4.24756469351095     1.41585489783698
O     4.24756469351095     1.41585489783698     4.24756469351095
O     1.41585489783698     4.24756469351095     4.24756469351095
O     4.24756469351095     1.41585489783698     1.41585489783698
O     1.41585489783698     4.24756469351095     1.41585489783698
O     1.41585489783698     1.41585489783698     4.24756469351095