CRYSTAL
# Primitive lattice vectors in Angstrom
PRIMVEC
 4.90249737309708 0.00000000000000 0.00000000000000
 -0.00000000000000 4.90249737309708 0.00000000000000
 0.00000000000000 0.00000000000000 4.90249737309708
# Cartesian coordinates in Angstrom.
PRIMCOORD
 14 1
Li     0.00000000000000     0.00000000000000     0.00000000000000
Li     2.45124868654854     2.45124868654854     0.00000000000000
Li     2.45124868654854     0.00000000000000     2.45124868654854
Li     0.00000000000000     2.45124868654854     2.45124868654854
O     2.45124868654854     0.00000000000000     0.00000000000000
O     0.00000000000000     2.45124868654854     0.00000000000000
O     0.00000000000000     0.00000000000000     2.45124868654854
O     2.45124868654854     2.45124868654854     2.45124868654854
O     3.67687302982281     3.67687302982281     1.22562434327427
O     3.67687302982281     1.22562434327427     3.67687302982281
O     1.22562434327427     3.67687302982281     3.67687302982281
O     3.67687302982281     1.22562434327427     1.22562434327427
O     1.22562434327427     3.67687302982281     1.22562434327427
O     1.22562434327427     1.22562434327427     3.67687302982281