CRYSTAL
# Primitive lattice vectors in Angstrom
PRIMVEC
 4.40534763235321 0.00000000000000 0.00000000000000
 -0.00000000000000 4.40534763235321 0.00000000000000
 0.00000000000000 0.00000000000000 4.40534763235321
# Cartesian coordinates in Angstrom.
PRIMCOORD
 10 1
Li     1.10133690808830     1.10133690808830     1.10133690808830
Li     3.30401072426491     3.30401072426491     1.10133690808830
Li     3.30401072426491     1.10133690808830     3.30401072426491
Li     1.10133690808830     3.30401072426491     3.30401072426491
O     2.20267381617661     0.00000000000000     0.00000000000000
O     0.00000000000000     2.20267381617661     0.00000000000000
O     0.00000000000000     0.00000000000000     2.20267381617661
O     2.20267381617661     2.20267381617661     0.00000000000000
O     2.20267381617661     0.00000000000000     2.20267381617661
O     0.00000000000000     2.20267381617661     2.20267381617661