CRYSTAL
# Primitive lattice vectors in Angstrom
PRIMVEC
 3.51882413024423 0.00000000000000 0.00000000000000
 -0.00000000000000 3.51882413024423 0.00000000000000
 0.00000000000000 0.00000000000000 3.51882413024423
# Cartesian coordinates in Angstrom.
PRIMCOORD
 4 1
Li     0.00000000000000     0.00000000000000     0.00000000000000
O     1.75941206512211     0.00000000000000     0.00000000000000
O     0.00000000000000     1.75941206512211     0.00000000000000
O     0.00000000000000     0.00000000000000     1.75941206512211