CRYSTAL
# Primitive lattice vectors in Angstrom
PRIMVEC
 4.30089821325397 0.00000000000000 0.00000000000000
 -0.00000000000000 4.30089821325397 0.00000000000000
 0.00000000000000 0.00000000000000 4.30089821325397
# Cartesian coordinates in Angstrom.
PRIMCOORD
 4 1
Lr     0.00000000000000     0.00000000000000     0.00000000000000
O     2.15044910662698     0.00000000000000     0.00000000000000
O     0.00000000000000     2.15044910662698     0.00000000000000
O     0.00000000000000     0.00000000000000     2.15044910662698