CRYSTAL
# Primitive lattice vectors in Angstrom
PRIMVEC
 5.31793963809805 0.00000000000000 0.00000000000000
 -0.00000000000000 5.31793963809805 0.00000000000000
 0.00000000000000 0.00000000000000 5.31793963809805
# Cartesian coordinates in Angstrom.
PRIMCOORD
 10 1
Lr     1.32948490952451     1.32948490952451     1.32948490952451
Lr     3.98845472857354     3.98845472857354     1.32948490952451
Lr     3.98845472857354     1.32948490952451     3.98845472857354
Lr     1.32948490952451     3.98845472857354     3.98845472857354
O     2.65896981904903     0.00000000000000     0.00000000000000
O     0.00000000000000     2.65896981904903     0.00000000000000
O     0.00000000000000     0.00000000000000     2.65896981904903
O     2.65896981904903     2.65896981904903     0.00000000000000
O     2.65896981904903     0.00000000000000     2.65896981904903
O     0.00000000000000     2.65896981904903     2.65896981904903