CRYSTAL
# Primitive lattice vectors in Angstrom
PRIMVEC
 5.42764806543939 0.00000000000000 0.00000000000000
 -0.00000000000000 5.42764806543939 0.00000000000000
 0.00000000000000 0.00000000000000 5.42764806543939
# Cartesian coordinates in Angstrom.
PRIMCOORD
 14 1
Lr     0.00000000000000     0.00000000000000     0.00000000000000
Lr     2.71382403271970     2.71382403271970     0.00000000000000
Lr     2.71382403271970     0.00000000000000     2.71382403271970
Lr     0.00000000000000     2.71382403271970     2.71382403271970
O     2.71382403271970     0.00000000000000     0.00000000000000
O     0.00000000000000     2.71382403271970     0.00000000000000
O     0.00000000000000     0.00000000000000     2.71382403271970
O     2.71382403271970     2.71382403271970     2.71382403271970
O     4.07073604907955     4.07073604907955     1.35691201635985
O     4.07073604907955     1.35691201635985     4.07073604907955
O     1.35691201635985     4.07073604907955     4.07073604907955
O     4.07073604907955     1.35691201635985     1.35691201635985
O     1.35691201635985     4.07073604907955     1.35691201635985
O     1.35691201635985     1.35691201635985     4.07073604907955