CRYSTAL
# Primitive lattice vectors in Angstrom
PRIMVEC
 5.32510623642304 0.00000000000000 0.00000000000000
 -0.00000000000000 5.32510623642304 0.00000000000000
 0.00000000000000 0.00000000000000 5.32510623642304
# Cartesian coordinates in Angstrom.
PRIMCOORD
 14 1
Lu     0.00000000000000     0.00000000000000     0.00000000000000
Lu     2.66255311821152     2.66255311821152     0.00000000000000
Lu     2.66255311821152     0.00000000000000     2.66255311821152
Lu     0.00000000000000     2.66255311821152     2.66255311821152
O     2.66255311821152     0.00000000000000     0.00000000000000
O     0.00000000000000     2.66255311821152     0.00000000000000
O     0.00000000000000     0.00000000000000     2.66255311821152
O     2.66255311821152     2.66255311821152     2.66255311821152
O     3.99382967731728     3.99382967731728     1.33127655910576
O     3.99382967731728     1.33127655910576     3.99382967731728
O     1.33127655910576     3.99382967731728     3.99382967731728
O     3.99382967731728     1.33127655910576     1.33127655910576
O     1.33127655910576     3.99382967731728     1.33127655910576
O     1.33127655910576     1.33127655910576     3.99382967731728