CRYSTAL
# Primitive lattice vectors in Angstrom
PRIMVEC
 4.21271136005681 0.00000000000000 0.00000000000000
 -0.00000000000000 4.21271136005681 0.00000000000000
 0.00000000000000 0.00000000000000 4.21271136005681
# Cartesian coordinates in Angstrom.
PRIMCOORD
 4 1
Lu     0.00000000000000     0.00000000000000     0.00000000000000
O     2.10635568002840     0.00000000000000     0.00000000000000
O     0.00000000000000     2.10635568002840     0.00000000000000
O     0.00000000000000     0.00000000000000     2.10635568002840