CRYSTAL
# Primitive lattice vectors in Angstrom
PRIMVEC
 5.17784165850879 0.00000000000000 0.00000000000000
 -0.00000000000000 5.17784165850879 0.00000000000000
 0.00000000000000 0.00000000000000 5.17784165850879
# Cartesian coordinates in Angstrom.
PRIMCOORD
 10 1
Lu     1.29446041462720     1.29446041462720     1.29446041462720
Lu     3.88338124388160     3.88338124388160     1.29446041462720
Lu     3.88338124388160     1.29446041462720     3.88338124388160
Lu     1.29446041462720     3.88338124388160     3.88338124388160
O     2.58892082925440     0.00000000000000     0.00000000000000
O     0.00000000000000     2.58892082925440     0.00000000000000
O     0.00000000000000     0.00000000000000     2.58892082925440
O     2.58892082925440     2.58892082925440     0.00000000000000
O     2.58892082925440     0.00000000000000     2.58892082925440
O     0.00000000000000     2.58892082925440     2.58892082925440