CRYSTAL
# Primitive lattice vectors in Angstrom
PRIMVEC
 4.13039275841238 0.00000000000000 0.00000000000000
 -0.00000000000000 4.13039275841238 0.00000000000000
 0.00000000000000 0.00000000000000 4.13039275841238
# Cartesian coordinates in Angstrom.
PRIMCOORD
 4 1
Md     0.00000000000000     0.00000000000000     0.00000000000000
O     2.06519637920618     0.00000000000000     0.00000000000000
O     0.00000000000000     2.06519637920618     0.00000000000000
O     0.00000000000000     0.00000000000000     2.06519637920618