CRYSTAL
# Primitive lattice vectors in Angstrom
PRIMVEC
 5.29125223830468 0.00000000000000 0.00000000000000
 -0.00000000000000 5.29125223830468 0.00000000000000
 0.00000000000000 0.00000000000000 5.29125223830468
# Cartesian coordinates in Angstrom.
PRIMCOORD
 10 1
Md     1.32281305957617     1.32281305957617     1.32281305957617
Md     3.96843917872851     3.96843917872851     1.32281305957617
Md     3.96843917872851     1.32281305957617     3.96843917872851
Md     1.32281305957617     3.96843917872851     3.96843917872851
O     2.64562611915234     0.00000000000000     0.00000000000000
O     0.00000000000000     2.64562611915234     0.00000000000000
O     0.00000000000000     0.00000000000000     2.64562611915234
O     2.64562611915234     2.64562611915234     0.00000000000000
O     2.64562611915234     0.00000000000000     2.64562611915234
O     0.00000000000000     2.64562611915234     2.64562611915234