CRYSTAL
# Primitive lattice vectors in Angstrom
PRIMVEC
 5.35641956469357 0.00000000000000 0.00000000000000
 -0.00000000000000 5.35641956469357 0.00000000000000
 0.00000000000000 0.00000000000000 5.35641956469357
# Cartesian coordinates in Angstrom.
PRIMCOORD
 14 1
Md     0.00000000000000     0.00000000000000     0.00000000000000
Md     2.67820978234678     2.67820978234678     0.00000000000000
Md     2.67820978234678     0.00000000000000     2.67820978234678
Md     0.00000000000000     2.67820978234678     2.67820978234678
O     2.67820978234678     0.00000000000000     0.00000000000000
O     0.00000000000000     2.67820978234678     0.00000000000000
O     0.00000000000000     0.00000000000000     2.67820978234678
O     2.67820978234678     2.67820978234678     2.67820978234678
O     4.01731467352018     4.01731467352018     1.33910489117339
O     4.01731467352018     1.33910489117339     4.01731467352018
O     1.33910489117339     4.01731467352018     4.01731467352018
O     4.01731467352018     1.33910489117339     1.33910489117339
O     1.33910489117339     4.01731467352018     1.33910489117339
O     1.33910489117339     1.33910489117339     4.01731467352018