CRYSTAL
# Primitive lattice vectors in Angstrom
PRIMVEC
 3.91879432190599 0.00000000000000 0.00000000000000
 -0.00000000000000 3.91879432190599 0.00000000000000
 0.00000000000000 0.00000000000000 3.91879432190599
# Cartesian coordinates in Angstrom.
PRIMCOORD
 4 1
Mg     0.00000000000000     0.00000000000000     0.00000000000000
O     1.95939716095299     0.00000000000000     0.00000000000000
O     0.00000000000000     1.95939716095299     0.00000000000000
O     0.00000000000000     0.00000000000000     1.95939716095299