CRYSTAL
# Primitive lattice vectors in Angstrom
PRIMVEC
 4.79783422325706 0.00000000000000 0.00000000000000
 -0.00000000000000 4.79783422325706 0.00000000000000
 0.00000000000000 0.00000000000000 4.79783422325706
# Cartesian coordinates in Angstrom.
PRIMCOORD
 10 1
Mg     1.19945855581426     1.19945855581426     1.19945855581426
Mg     3.59837566744279     3.59837566744279     1.19945855581426
Mg     3.59837566744279     1.19945855581426     3.59837566744279
Mg     1.19945855581426     3.59837566744279     3.59837566744279
O     2.39891711162853     0.00000000000000     0.00000000000000
O     0.00000000000000     2.39891711162853     0.00000000000000
O     0.00000000000000     0.00000000000000     2.39891711162853
O     2.39891711162853     2.39891711162853     0.00000000000000
O     2.39891711162853     0.00000000000000     2.39891711162853
O     0.00000000000000     2.39891711162853     2.39891711162853