CRYSTAL
# Primitive lattice vectors in Angstrom
PRIMVEC
 5.11390582726892 0.00000000000000 0.00000000000000
 -0.00000000000000 5.11390582726892 0.00000000000000
 0.00000000000000 0.00000000000000 5.11390582726892
# Cartesian coordinates in Angstrom.
PRIMCOORD
 14 1
Mg     0.00000000000000     0.00000000000000     0.00000000000000
Mg     2.55695291363446     2.55695291363446     0.00000000000000
Mg     2.55695291363446     0.00000000000000     2.55695291363446
Mg     0.00000000000000     2.55695291363446     2.55695291363446
O     2.55695291363446     0.00000000000000     0.00000000000000
O     0.00000000000000     2.55695291363446     0.00000000000000
O     0.00000000000000     0.00000000000000     2.55695291363446
O     2.55695291363446     2.55695291363446     2.55695291363446
O     3.83542937045169     3.83542937045169     1.27847645681723
O     3.83542937045169     1.27847645681723     3.83542937045169
O     1.27847645681723     3.83542937045169     3.83542937045169
O     3.83542937045169     1.27847645681723     1.27847645681723
O     1.27847645681723     3.83542937045169     1.27847645681723
O     1.27847645681723     1.27847645681723     3.83542937045169