CRYSTAL
# Primitive lattice vectors in Angstrom
PRIMVEC
 3.53724423256550 0.00000000000000 0.00000000000000
 -0.00000000000000 3.53724423256550 0.00000000000000
 0.00000000000000 0.00000000000000 3.53724423256550
# Cartesian coordinates in Angstrom.
PRIMCOORD
 4 1
Mn     0.00000000000000     0.00000000000000     0.00000000000000
O     1.76862211628274     0.00000000000000     0.00000000000000
O     0.00000000000000     1.76862211628274     0.00000000000000
O     0.00000000000000     0.00000000000000     1.76862211628274