CRYSTAL
# Primitive lattice vectors in Angstrom
PRIMVEC
 4.79873691541867 0.00000000000000 0.00000000000000
 -0.00000000000000 4.79873691541867 0.00000000000000
 0.00000000000000 0.00000000000000 4.79873691541867
# Cartesian coordinates in Angstrom.
PRIMCOORD
 14 1
Mn     0.00000000000000     0.00000000000000     0.00000000000000
Mn     2.39936845770934     2.39936845770934     0.00000000000000
Mn     2.39936845770934     0.00000000000000     2.39936845770934
Mn     0.00000000000000     2.39936845770934     2.39936845770934
O     2.39936845770934     0.00000000000000     0.00000000000000
O     0.00000000000000     2.39936845770934     0.00000000000000
O     0.00000000000000     0.00000000000000     2.39936845770934
O     2.39936845770934     2.39936845770934     2.39936845770934
O     3.59905268656401     3.59905268656401     1.19968422885467
O     3.59905268656401     1.19968422885467     3.59905268656401
O     1.19968422885467     3.59905268656401     3.59905268656401
O     3.59905268656401     1.19968422885467     1.19968422885467
O     1.19968422885467     3.59905268656401     1.19968422885467
O     1.19968422885467     1.19968422885467     3.59905268656401