CRYSTAL
# Primitive lattice vectors in Angstrom
PRIMVEC
 4.47586240961671 0.00000000000000 0.00000000000000
 -0.00000000000000 4.47586240961671 0.00000000000000
 0.00000000000000 0.00000000000000 4.47586240961671
# Cartesian coordinates in Angstrom.
PRIMCOORD
 10 1
Mn     1.11896560240417     1.11896560240417     1.11896560240417
Mn     3.35689680721253     3.35689680721253     1.11896560240417
Mn     3.35689680721253     1.11896560240417     3.35689680721253
Mn     1.11896560240417     3.35689680721253     3.35689680721253
O     2.23793120480836     0.00000000000000     0.00000000000000
O     0.00000000000000     2.23793120480836     0.00000000000000
O     0.00000000000000     0.00000000000000     2.23793120480836
O     2.23793120480836     2.23793120480836     0.00000000000000
O     2.23793120480836     0.00000000000000     2.23793120480836
O     0.00000000000000     2.23793120480836     2.23793120480836