CRYSTAL
# Primitive lattice vectors in Angstrom
PRIMVEC
 3.78874251834429 0.00000000000000 0.00000000000000
 -0.00000000000000 3.78874251834429 0.00000000000000
 0.00000000000000 0.00000000000000 3.78874251834429
# Cartesian coordinates in Angstrom.
PRIMCOORD
 4 1
Mo     0.00000000000000     0.00000000000000     0.00000000000000
O     1.89437125917214     0.00000000000000     0.00000000000000
O     0.00000000000000     1.89437125917214     0.00000000000000
O     0.00000000000000     0.00000000000000     1.89437125917214