CRYSTAL
# Primitive lattice vectors in Angstrom
PRIMVEC
 4.95217729176653 0.00000000000000 0.00000000000000
 -0.00000000000000 4.95217729176653 0.00000000000000
 0.00000000000000 0.00000000000000 4.95217729176653
# Cartesian coordinates in Angstrom.
PRIMCOORD
 14 1
Mo     0.00000000000000     0.00000000000000     0.00000000000000
Mo     2.47608864588326     2.47608864588326     0.00000000000000
Mo     2.47608864588326     0.00000000000000     2.47608864588326
Mo     0.00000000000000     2.47608864588326     2.47608864588326
O     2.47608864588326     0.00000000000000     0.00000000000000
O     0.00000000000000     2.47608864588326     0.00000000000000
O     0.00000000000000     0.00000000000000     2.47608864588326
O     2.47608864588326     2.47608864588326     2.47608864588326
O     3.71413296882490     3.71413296882490     1.23804432294163
O     3.71413296882490     1.23804432294163     3.71413296882490
O     1.23804432294163     3.71413296882490     3.71413296882490
O     3.71413296882490     1.23804432294163     1.23804432294163
O     1.23804432294163     3.71413296882490     1.23804432294163
O     1.23804432294163     1.23804432294163     3.71413296882490