CRYSTAL
# Primitive lattice vectors in Angstrom
PRIMVEC
 4.79101376427336 0.00000000000000 0.00000000000000
 -0.00000000000000 4.79101376427336 0.00000000000000
 0.00000000000000 0.00000000000000 4.79101376427336
# Cartesian coordinates in Angstrom.
PRIMCOORD
 10 1
Mo     1.19775344106834     1.19775344106834     1.19775344106834
Mo     3.59326032320502     3.59326032320502     1.19775344106834
Mo     3.59326032320502     1.19775344106834     3.59326032320502
Mo     1.19775344106834     3.59326032320502     3.59326032320502
O     2.39550688213668     0.00000000000000     0.00000000000000
O     0.00000000000000     2.39550688213668     0.00000000000000
O     0.00000000000000     0.00000000000000     2.39550688213668
O     2.39550688213668     2.39550688213668     0.00000000000000
O     2.39550688213668     0.00000000000000     2.39550688213668
O     0.00000000000000     2.39550688213668     2.39550688213668