CRYSTAL
# Primitive lattice vectors in Angstrom
PRIMVEC
 4.76788397856628 0.00000000000000 0.00000000000000
 -0.00000000000000 4.76788397856628 0.00000000000000
 0.00000000000000 0.00000000000000 4.76788397856628
# Cartesian coordinates in Angstrom.
PRIMCOORD
 14 1
N     0.00000000000000     0.00000000000000     0.00000000000000
N     2.38394198928314     2.38394198928314     0.00000000000000
N     2.38394198928314     0.00000000000000     2.38394198928314
N     0.00000000000000     2.38394198928314     2.38394198928314
O     2.38394198928314     0.00000000000000     0.00000000000000
O     0.00000000000000     2.38394198928314     0.00000000000000
O     0.00000000000000     0.00000000000000     2.38394198928314
O     2.38394198928314     2.38394198928314     2.38394198928314
O     3.57591298392471     3.57591298392471     1.19197099464157
O     3.57591298392471     1.19197099464157     3.57591298392471
O     1.19197099464157     3.57591298392471     3.57591298392471
O     3.57591298392471     1.19197099464157     1.19197099464157
O     1.19197099464157     3.57591298392471     1.19197099464157
O     1.19197099464157     1.19197099464157     3.57591298392471