CRYSTAL
# Primitive lattice vectors in Angstrom
PRIMVEC
 4.43495761052519 0.00000000000000 0.00000000000000
 -0.00000000000000 4.43495761052519 0.00000000000000
 0.00000000000000 0.00000000000000 4.43495761052519
# Cartesian coordinates in Angstrom.
PRIMCOORD
 10 1
N     1.10873940263129     1.10873940263129     1.10873940263129
N     3.32621820789389     3.32621820789389     1.10873940263129
N     3.32621820789389     1.10873940263129     3.32621820789389
N     1.10873940263129     3.32621820789389     3.32621820789389
O     2.21747880526260     0.00000000000000     0.00000000000000
O     0.00000000000000     2.21747880526260     0.00000000000000
O     0.00000000000000     0.00000000000000     2.21747880526260
O     2.21747880526260     2.21747880526260     0.00000000000000
O     2.21747880526260     0.00000000000000     2.21747880526260
O     0.00000000000000     2.21747880526260     2.21747880526260