CRYSTAL
# Primitive lattice vectors in Angstrom
PRIMVEC
 3.35565467272692 0.00000000000000 0.00000000000000
 -0.00000000000000 3.35565467272692 0.00000000000000
 0.00000000000000 0.00000000000000 3.35565467272692
# Cartesian coordinates in Angstrom.
PRIMCOORD
 4 1
N     0.00000000000000     0.00000000000000     0.00000000000000
O     1.67782733636345     0.00000000000000     0.00000000000000
O     0.00000000000000     1.67782733636345     0.00000000000000
O     0.00000000000000     0.00000000000000     1.67782733636345