CRYSTAL
# Primitive lattice vectors in Angstrom
PRIMVEC
 5.20183100601534 0.00000000000000 0.00000000000000
 -0.00000000000000 5.20183100601534 0.00000000000000
 0.00000000000000 0.00000000000000 5.20183100601534
# Cartesian coordinates in Angstrom.
PRIMCOORD
 14 1
Na     0.00000000000000     0.00000000000000     0.00000000000000
Na     2.60091550300767     2.60091550300767     0.00000000000000
Na     2.60091550300767     0.00000000000000     2.60091550300767
Na     0.00000000000000     2.60091550300767     2.60091550300767
O     2.60091550300767     0.00000000000000     0.00000000000000
O     0.00000000000000     2.60091550300767     0.00000000000000
O     0.00000000000000     0.00000000000000     2.60091550300767
O     2.60091550300767     2.60091550300767     2.60091550300767
O     3.90137325451150     3.90137325451150     1.30045775150383
O     3.90137325451150     1.30045775150383     3.90137325451150
O     1.30045775150383     3.90137325451150     3.90137325451150
O     3.90137325451150     1.30045775150383     1.30045775150383
O     1.30045775150383     3.90137325451150     1.30045775150383
O     1.30045775150383     1.30045775150383     3.90137325451150