CRYSTAL
# Primitive lattice vectors in Angstrom
PRIMVEC
 5.13032082169954 0.00000000000000 0.00000000000000
 -0.00000000000000 5.13032082169954 0.00000000000000
 0.00000000000000 0.00000000000000 5.13032082169954
# Cartesian coordinates in Angstrom.
PRIMCOORD
 10 1
Na     1.28258020542488     1.28258020542488     1.28258020542488
Na     3.84774061627466     3.84774061627466     1.28258020542488
Na     3.84774061627466     1.28258020542488     3.84774061627466
Na     1.28258020542488     3.84774061627466     3.84774061627466
O     2.56516041084977     0.00000000000000     0.00000000000000
O     0.00000000000000     2.56516041084977     0.00000000000000
O     0.00000000000000     0.00000000000000     2.56516041084977
O     2.56516041084977     2.56516041084977     0.00000000000000
O     2.56516041084977     0.00000000000000     2.56516041084977
O     0.00000000000000     2.56516041084977     2.56516041084977