CRYSTAL
# Primitive lattice vectors in Angstrom
PRIMVEC
 4.29625219730359 0.00000000000000 0.00000000000000
 -0.00000000000000 4.29625219730359 0.00000000000000
 0.00000000000000 0.00000000000000 4.29625219730359
# Cartesian coordinates in Angstrom.
PRIMCOORD
 4 1
Na     0.00000000000000     0.00000000000000     0.00000000000000
O     2.14812609865179     0.00000000000000     0.00000000000000
O     0.00000000000000     2.14812609865179     0.00000000000000
O     0.00000000000000     0.00000000000000     2.14812609865179