CRYSTAL
# Primitive lattice vectors in Angstrom
PRIMVEC
 4.88376504201860 0.00000000000000 0.00000000000000
 -0.00000000000000 4.88376504201860 0.00000000000000
 0.00000000000000 0.00000000000000 4.88376504201860
# Cartesian coordinates in Angstrom.
PRIMCOORD
 10 1
Nb     1.22094126050465     1.22094126050465     1.22094126050465
Nb     3.66282378151395     3.66282378151395     1.22094126050465
Nb     3.66282378151395     1.22094126050465     3.66282378151395
Nb     1.22094126050465     3.66282378151395     3.66282378151395
O     2.44188252100931     0.00000000000000     0.00000000000000
O     0.00000000000000     2.44188252100931     0.00000000000000
O     0.00000000000000     0.00000000000000     2.44188252100931
O     2.44188252100931     2.44188252100931     0.00000000000000
O     2.44188252100931     0.00000000000000     2.44188252100931
O     0.00000000000000     2.44188252100931     2.44188252100931