CRYSTAL
# Primitive lattice vectors in Angstrom
PRIMVEC
 5.02810051417487 0.00000000000000 0.00000000000000
 -0.00000000000000 5.02810051417487 0.00000000000000
 0.00000000000000 0.00000000000000 5.02810051417487
# Cartesian coordinates in Angstrom.
PRIMCOORD
 14 1
Nb     0.00000000000000     0.00000000000000     0.00000000000000
Nb     2.51405025708744     2.51405025708744     0.00000000000000
Nb     2.51405025708744     0.00000000000000     2.51405025708744
Nb     0.00000000000000     2.51405025708744     2.51405025708744
O     2.51405025708744     0.00000000000000     0.00000000000000
O     0.00000000000000     2.51405025708744     0.00000000000000
O     0.00000000000000     0.00000000000000     2.51405025708744
O     2.51405025708744     2.51405025708744     2.51405025708744
O     3.77107538563115     3.77107538563115     1.25702512854372
O     3.77107538563115     1.25702512854372     3.77107538563115
O     1.25702512854372     3.77107538563115     3.77107538563115
O     3.77107538563115     1.25702512854372     1.25702512854372
O     1.25702512854372     3.77107538563115     1.25702512854372
O     1.25702512854372     1.25702512854372     3.77107538563115