CRYSTAL
# Primitive lattice vectors in Angstrom
PRIMVEC
 3.92087619023895 0.00000000000000 0.00000000000000
 -0.00000000000000 3.92087619023895 0.00000000000000
 0.00000000000000 0.00000000000000 3.92087619023895
# Cartesian coordinates in Angstrom.
PRIMCOORD
 4 1
Nb     0.00000000000000     0.00000000000000     0.00000000000000
O     1.96043809511947     0.00000000000000     0.00000000000000
O     0.00000000000000     1.96043809511947     0.00000000000000
O     0.00000000000000     0.00000000000000     1.96043809511947