CRYSTAL
# Primitive lattice vectors in Angstrom
PRIMVEC
 5.33836448280973 0.00000000000000 0.00000000000000
 -0.00000000000000 5.33836448280973 0.00000000000000
 0.00000000000000 0.00000000000000 5.33836448280973
# Cartesian coordinates in Angstrom.
PRIMCOORD
 10 1
Nd     1.33459112070243     1.33459112070243     1.33459112070243
Nd     4.00377336210730     4.00377336210730     1.33459112070243
Nd     4.00377336210730     1.33459112070243     4.00377336210730
Nd     1.33459112070243     4.00377336210730     4.00377336210730
O     2.66918224140487     0.00000000000000     0.00000000000000
O     0.00000000000000     2.66918224140487     0.00000000000000
O     0.00000000000000     0.00000000000000     2.66918224140487
O     2.66918224140487     2.66918224140487     0.00000000000000
O     2.66918224140487     0.00000000000000     2.66918224140487
O     0.00000000000000     2.66918224140487     2.66918224140487