CRYSTAL
# Primitive lattice vectors in Angstrom
PRIMVEC
 5.34814982630775 0.00000000000000 0.00000000000000
 -0.00000000000000 5.34814982630775 0.00000000000000
 0.00000000000000 0.00000000000000 5.34814982630775
# Cartesian coordinates in Angstrom.
PRIMCOORD
 14 1
Nd     0.00000000000000     0.00000000000000     0.00000000000000
Nd     2.67407491315387     2.67407491315387     0.00000000000000
Nd     2.67407491315387     0.00000000000000     2.67407491315387
Nd     0.00000000000000     2.67407491315387     2.67407491315387
O     2.67407491315387     0.00000000000000     0.00000000000000
O     0.00000000000000     2.67407491315387     0.00000000000000
O     0.00000000000000     0.00000000000000     2.67407491315387
O     2.67407491315387     2.67407491315387     2.67407491315387
O     4.01111236973081     4.01111236973081     1.33703745657694
O     4.01111236973081     1.33703745657694     4.01111236973081
O     1.33703745657694     4.01111236973081     4.01111236973081
O     4.01111236973081     1.33703745657694     1.33703745657694
O     1.33703745657694     4.01111236973081     1.33703745657694
O     1.33703745657694     1.33703745657694     4.01111236973081