CRYSTAL
# Primitive lattice vectors in Angstrom
PRIMVEC
 4.12479909598059 0.00000000000000 0.00000000000000
 -0.00000000000000 4.12479909598059 0.00000000000000
 0.00000000000000 0.00000000000000 4.12479909598059
# Cartesian coordinates in Angstrom.
PRIMCOORD
 4 1
Nd     0.00000000000000     0.00000000000000     0.00000000000000
O     2.06239954799029     0.00000000000000     0.00000000000000
O     0.00000000000000     2.06239954799029     0.00000000000000
O     0.00000000000000     0.00000000000000     2.06239954799029