CRYSTAL
# Primitive lattice vectors in Angstrom
PRIMVEC
 5.06106733773268 0.00000000000000 0.00000000000000
 -0.00000000000000 5.06106733773268 0.00000000000000
 0.00000000000000 0.00000000000000 5.06106733773268
# Cartesian coordinates in Angstrom.
PRIMCOORD
 14 1
Ne     0.00000000000000     0.00000000000000     0.00000000000000
Ne     2.53053366886634     2.53053366886634     0.00000000000000
Ne     2.53053366886634     0.00000000000000     2.53053366886634
Ne     0.00000000000000     2.53053366886634     2.53053366886634
O     2.53053366886634     0.00000000000000     0.00000000000000
O     0.00000000000000     2.53053366886634     0.00000000000000
O     0.00000000000000     0.00000000000000     2.53053366886634
O     2.53053366886634     2.53053366886634     2.53053366886634
O     3.79580050329951     3.79580050329951     1.26526683443317
O     3.79580050329951     1.26526683443317     3.79580050329951
O     1.26526683443317     3.79580050329951     3.79580050329951
O     3.79580050329951     1.26526683443317     1.26526683443317
O     1.26526683443317     3.79580050329951     1.26526683443317
O     1.26526683443317     1.26526683443317     3.79580050329951