CRYSTAL
# Primitive lattice vectors in Angstrom
PRIMVEC
 5.33342163533573 0.00000000000000 0.00000000000000
 -0.00000000000000 5.33342163533573 0.00000000000000
 0.00000000000000 0.00000000000000 5.33342163533573
# Cartesian coordinates in Angstrom.
PRIMCOORD
 10 1
Ne     1.33335540883393     1.33335540883393     1.33335540883393
Ne     4.00006622650180     4.00006622650180     1.33335540883393
Ne     4.00006622650180     1.33335540883393     4.00006622650180
Ne     1.33335540883393     4.00006622650180     4.00006622650180
O     2.66671081766787     0.00000000000000     0.00000000000000
O     0.00000000000000     2.66671081766787     0.00000000000000
O     0.00000000000000     0.00000000000000     2.66671081766787
O     2.66671081766787     2.66671081766787     0.00000000000000
O     2.66671081766787     0.00000000000000     2.66671081766787
O     0.00000000000000     2.66671081766787     2.66671081766787