CRYSTAL
# Primitive lattice vectors in Angstrom
PRIMVEC
 4.87280889755686 0.00000000000000 0.00000000000000
 -0.00000000000000 4.87280889755686 0.00000000000000
 0.00000000000000 0.00000000000000 4.87280889755686
# Cartesian coordinates in Angstrom.
PRIMCOORD
 14 1
Ni     0.00000000000000     0.00000000000000     0.00000000000000
Ni     2.43640444877843     2.43640444877843     0.00000000000000
Ni     2.43640444877843     0.00000000000000     2.43640444877843
Ni     0.00000000000000     2.43640444877843     2.43640444877843
O     2.43640444877843     0.00000000000000     0.00000000000000
O     0.00000000000000     2.43640444877843     0.00000000000000
O     0.00000000000000     0.00000000000000     2.43640444877843
O     2.43640444877843     2.43640444877843     2.43640444877843
O     3.65460667316764     3.65460667316764     1.21820222438921
O     3.65460667316764     1.21820222438921     3.65460667316764
O     1.21820222438921     3.65460667316764     3.65460667316764
O     3.65460667316764     1.21820222438921     1.21820222438921
O     1.21820222438921     3.65460667316764     1.21820222438921
O     1.21820222438921     1.21820222438921     3.65460667316764