CRYSTAL
# Primitive lattice vectors in Angstrom
PRIMVEC
 4.51411085935122 0.00000000000000 0.00000000000000
 -0.00000000000000 4.51411085935122 0.00000000000000
 0.00000000000000 0.00000000000000 4.51411085935122
# Cartesian coordinates in Angstrom.
PRIMCOORD
 10 1
Ni     1.12852771483780     1.12852771483780     1.12852771483780
Ni     3.38558314451341     3.38558314451341     1.12852771483780
Ni     3.38558314451341     1.12852771483780     3.38558314451341
Ni     1.12852771483780     3.38558314451341     3.38558314451341
O     2.25705542967561     0.00000000000000     0.00000000000000
O     0.00000000000000     2.25705542967561     0.00000000000000
O     0.00000000000000     0.00000000000000     2.25705542967561
O     2.25705542967561     2.25705542967561     0.00000000000000
O     2.25705542967561     0.00000000000000     2.25705542967561
O     0.00000000000000     2.25705542967561     2.25705542967561