CRYSTAL
# Primitive lattice vectors in Angstrom
PRIMVEC
 3.61904448856113 0.00000000000000 0.00000000000000
 -0.00000000000000 3.61904448856113 0.00000000000000
 0.00000000000000 0.00000000000000 3.61904448856113
# Cartesian coordinates in Angstrom.
PRIMCOORD
 4 1
Ni     0.00000000000000     0.00000000000000     0.00000000000000
O     1.80952224428056     0.00000000000000     0.00000000000000
O     0.00000000000000     1.80952224428056     0.00000000000000
O     0.00000000000000     0.00000000000000     1.80952224428056