CRYSTAL
# Primitive lattice vectors in Angstrom
PRIMVEC
 5.42345247253604 0.00000000000000 0.00000000000000
 -0.00000000000000 5.42345247253604 0.00000000000000
 0.00000000000000 0.00000000000000 5.42345247253604
# Cartesian coordinates in Angstrom.
PRIMCOORD
 14 1
No     0.00000000000000     0.00000000000000     0.00000000000000
No     2.71172623626802     2.71172623626802     0.00000000000000
No     2.71172623626802     0.00000000000000     2.71172623626802
No     0.00000000000000     2.71172623626802     2.71172623626802
O     2.71172623626802     0.00000000000000     0.00000000000000
O     0.00000000000000     2.71172623626802     0.00000000000000
O     0.00000000000000     0.00000000000000     2.71172623626802
O     2.71172623626802     2.71172623626802     2.71172623626802
O     4.06758935440203     4.06758935440203     1.35586311813401
O     4.06758935440203     1.35586311813401     4.06758935440203
O     1.35586311813401     4.06758935440203     4.06758935440203
O     4.06758935440203     1.35586311813401     1.35586311813401
O     1.35586311813401     4.06758935440203     1.35586311813401
O     1.35586311813401     1.35586311813401     4.06758935440203