CRYSTAL
# Primitive lattice vectors in Angstrom
PRIMVEC
 5.35857577677027 0.00000000000000 0.00000000000000
 -0.00000000000000 5.35857577677027 0.00000000000000
 0.00000000000000 0.00000000000000 5.35857577677027
# Cartesian coordinates in Angstrom.
PRIMCOORD
 10 1
No     1.33964394419256     1.33964394419256     1.33964394419256
No     4.01893183257770     4.01893183257770     1.33964394419256
No     4.01893183257770     1.33964394419256     4.01893183257770
No     1.33964394419256     4.01893183257770     4.01893183257770
O     2.67928788838514     0.00000000000000     0.00000000000000
O     0.00000000000000     2.67928788838514     0.00000000000000
O     0.00000000000000     0.00000000000000     2.67928788838514
O     2.67928788838514     2.67928788838514     0.00000000000000
O     2.67928788838514     0.00000000000000     2.67928788838514
O     0.00000000000000     2.67928788838514     2.67928788838514