CRYSTAL
# Primitive lattice vectors in Angstrom
PRIMVEC
 4.22337481682073 0.00000000000000 0.00000000000000
 -0.00000000000000 4.22337481682073 0.00000000000000
 0.00000000000000 0.00000000000000 4.22337481682073
# Cartesian coordinates in Angstrom.
PRIMCOORD
 4 1
No     0.00000000000000     0.00000000000000     0.00000000000000
O     2.11168740841036     0.00000000000000     0.00000000000000
O     0.00000000000000     2.11168740841036     0.00000000000000
O     0.00000000000000     0.00000000000000     2.11168740841036