CRYSTAL
# Primitive lattice vectors in Angstrom
PRIMVEC
 5.22299161184910 0.00000000000000 0.00000000000000
 -0.00000000000000 5.22299161184910 0.00000000000000
 0.00000000000000 0.00000000000000 5.22299161184910
# Cartesian coordinates in Angstrom.
PRIMCOORD
 10 1
Np     1.30574790296227     1.30574790296227     1.30574790296227
Np     3.91724370888682     3.91724370888682     1.30574790296227
Np     3.91724370888682     1.30574790296227     3.91724370888682
Np     1.30574790296227     3.91724370888682     3.91724370888682
O     2.61149580592455     0.00000000000000     0.00000000000000
O     0.00000000000000     2.61149580592455     0.00000000000000
O     0.00000000000000     0.00000000000000     2.61149580592455
O     2.61149580592455     2.61149580592455     0.00000000000000
O     2.61149580592455     0.00000000000000     2.61149580592455
O     0.00000000000000     2.61149580592455     2.61149580592455