CRYSTAL
# Primitive lattice vectors in Angstrom
PRIMVEC
 5.24582697387787 0.00000000000000 0.00000000000000
 -0.00000000000000 5.24582697387787 0.00000000000000
 0.00000000000000 0.00000000000000 5.24582697387787
# Cartesian coordinates in Angstrom.
PRIMCOORD
 14 1
Np     0.00000000000000     0.00000000000000     0.00000000000000
Np     2.62291348693893     2.62291348693893     0.00000000000000
Np     2.62291348693893     0.00000000000000     2.62291348693893
Np     0.00000000000000     2.62291348693893     2.62291348693893
O     2.62291348693893     0.00000000000000     0.00000000000000
O     0.00000000000000     2.62291348693893     0.00000000000000
O     0.00000000000000     0.00000000000000     2.62291348693893
O     2.62291348693893     2.62291348693893     2.62291348693893
O     3.93437023040840     3.93437023040840     1.31145674346947
O     3.93437023040840     1.31145674346947     3.93437023040840
O     1.31145674346947     3.93437023040840     3.93437023040840
O     3.93437023040840     1.31145674346947     1.31145674346947
O     1.31145674346947     3.93437023040840     1.31145674346947
O     1.31145674346947     1.31145674346947     3.93437023040840