CRYSTAL
# Primitive lattice vectors in Angstrom
PRIMVEC
 4.78312744141568 0.00000000000000 0.00000000000000
 -0.00000000000000 4.78312744141568 0.00000000000000
 0.00000000000000 0.00000000000000 4.78312744141568
# Cartesian coordinates in Angstrom.
PRIMCOORD
 14 1
O     0.00000000000000     0.00000000000000     0.00000000000000
O     2.39156372070784     2.39156372070784     0.00000000000000
O     2.39156372070784     0.00000000000000     2.39156372070784
O     0.00000000000000     2.39156372070784     2.39156372070784
O     2.39156372070784     0.00000000000000     0.00000000000000
O     0.00000000000000     2.39156372070784     0.00000000000000
O     0.00000000000000     0.00000000000000     2.39156372070784
O     2.39156372070784     2.39156372070784     2.39156372070784
O     3.58734558106176     3.58734558106176     1.19578186035392
O     3.58734558106176     1.19578186035392     3.58734558106176
O     1.19578186035392     3.58734558106176     3.58734558106176
O     3.58734558106176     1.19578186035392     1.19578186035392
O     1.19578186035392     3.58734558106176     1.19578186035392
O     1.19578186035392     1.19578186035392     3.58734558106176