CRYSTAL
# Primitive lattice vectors in Angstrom
PRIMVEC
 4.50309002520763 0.00000000000000 0.00000000000000
 -0.00000000000000 4.50309002520763 0.00000000000000
 0.00000000000000 0.00000000000000 4.50309002520763
# Cartesian coordinates in Angstrom.
PRIMCOORD
 10 1
O     1.12577250630190     1.12577250630190     1.12577250630190
O     3.37731751890572     3.37731751890572     1.12577250630190
O     3.37731751890572     1.12577250630190     3.37731751890572
O     1.12577250630190     3.37731751890572     3.37731751890572
O     2.25154501260382     0.00000000000000     0.00000000000000
O     0.00000000000000     2.25154501260382     0.00000000000000
O     0.00000000000000     0.00000000000000     2.25154501260382
O     2.25154501260382     2.25154501260382     0.00000000000000
O     2.25154501260382     0.00000000000000     2.25154501260382
O     0.00000000000000     2.25154501260382     2.25154501260382