CRYSTAL
# Primitive lattice vectors in Angstrom
PRIMVEC
 3.48361331201885 0.00000000000000 0.00000000000000
 -0.00000000000000 3.48361331201885 0.00000000000000
 0.00000000000000 0.00000000000000 3.48361331201885
# Cartesian coordinates in Angstrom.
PRIMCOORD
 4 1
O     0.00000000000000     0.00000000000000     0.00000000000000
O     1.74180665600942     0.00000000000000     0.00000000000000
O     0.00000000000000     1.74180665600942     0.00000000000000
O     0.00000000000000     0.00000000000000     1.74180665600942