CRYSTAL
# Primitive lattice vectors in Angstrom
PRIMVEC
 4.72834182655777 0.00000000000000 0.00000000000000
 -0.00000000000000 4.72834182655777 0.00000000000000
 0.00000000000000 0.00000000000000 4.72834182655777
# Cartesian coordinates in Angstrom.
PRIMCOORD
 10 1
Os     1.18208545663944     1.18208545663944     1.18208545663944
Os     3.54625636991833     3.54625636991833     1.18208545663944
Os     3.54625636991833     1.18208545663944     3.54625636991833
Os     1.18208545663944     3.54625636991833     3.54625636991833
O     2.36417091327889     0.00000000000000     0.00000000000000
O     0.00000000000000     2.36417091327889     0.00000000000000
O     0.00000000000000     0.00000000000000     2.36417091327889
O     2.36417091327889     2.36417091327889     0.00000000000000
O     2.36417091327889     0.00000000000000     2.36417091327889
O     0.00000000000000     2.36417091327889     2.36417091327889