CRYSTAL
# Primitive lattice vectors in Angstrom
PRIMVEC
 4.95486181093617 0.00000000000000 0.00000000000000
 -0.00000000000000 4.95486181093617 0.00000000000000
 0.00000000000000 0.00000000000000 4.95486181093617
# Cartesian coordinates in Angstrom.
PRIMCOORD
 14 1
Os     0.00000000000000     0.00000000000000     0.00000000000000
Os     2.47743090546809     2.47743090546809     0.00000000000000
Os     2.47743090546809     0.00000000000000     2.47743090546809
Os     0.00000000000000     2.47743090546809     2.47743090546809
O     2.47743090546809     0.00000000000000     0.00000000000000
O     0.00000000000000     2.47743090546809     0.00000000000000
O     0.00000000000000     0.00000000000000     2.47743090546809
O     2.47743090546809     2.47743090546809     2.47743090546809
O     3.71614635820213     3.71614635820213     1.23871545273404
O     3.71614635820213     1.23871545273404     3.71614635820213
O     1.23871545273404     3.71614635820213     3.71614635820213
O     3.71614635820213     1.23871545273404     1.23871545273404
O     1.23871545273404     3.71614635820213     1.23871545273404
O     1.23871545273404     1.23871545273404     3.71614635820213