CRYSTAL
# Primitive lattice vectors in Angstrom
PRIMVEC
 3.73053410777736 0.00000000000000 0.00000000000000
 -0.00000000000000 3.73053410777736 0.00000000000000
 0.00000000000000 0.00000000000000 3.73053410777736
# Cartesian coordinates in Angstrom.
PRIMCOORD
 4 1
Os     0.00000000000000     0.00000000000000     0.00000000000000
O     1.86526705388867     0.00000000000000     0.00000000000000
O     0.00000000000000     1.86526705388867     0.00000000000000
O     0.00000000000000     0.00000000000000     1.86526705388867