CRYSTAL
# Primitive lattice vectors in Angstrom
PRIMVEC
 4.98900962950905 0.00000000000000 0.00000000000000
 -0.00000000000000 4.98900962950905 0.00000000000000
 0.00000000000000 0.00000000000000 4.98900962950905
# Cartesian coordinates in Angstrom.
PRIMCOORD
 14 1
P     0.00000000000000     0.00000000000000     0.00000000000000
P     2.49450481475452     2.49450481475452     0.00000000000000
P     2.49450481475452     0.00000000000000     2.49450481475452
P     0.00000000000000     2.49450481475452     2.49450481475452
O     2.49450481475452     0.00000000000000     0.00000000000000
O     0.00000000000000     2.49450481475452     0.00000000000000
O     0.00000000000000     0.00000000000000     2.49450481475452
O     2.49450481475452     2.49450481475452     2.49450481475452
O     3.74175722213179     3.74175722213179     1.24725240737726
O     3.74175722213179     1.24725240737726     3.74175722213179
O     1.24725240737726     3.74175722213179     3.74175722213179
O     3.74175722213179     1.24725240737726     1.24725240737726
O     1.24725240737726     3.74175722213179     1.24725240737726
O     1.24725240737726     1.24725240737726     3.74175722213179