CRYSTAL
# Primitive lattice vectors in Angstrom
PRIMVEC
 4.76642505050986 0.00000000000000 0.00000000000000
 -0.00000000000000 4.76642505050986 0.00000000000000
 0.00000000000000 0.00000000000000 4.76642505050986
# Cartesian coordinates in Angstrom.
PRIMCOORD
 10 1
P     1.19160626262746     1.19160626262746     1.19160626262746
P     3.57481878788239     3.57481878788239     1.19160626262746
P     3.57481878788239     1.19160626262746     3.57481878788239
P     1.19160626262746     3.57481878788239     3.57481878788239
O     2.38321252525493     0.00000000000000     0.00000000000000
O     0.00000000000000     2.38321252525493     0.00000000000000
O     0.00000000000000     0.00000000000000     2.38321252525493
O     2.38321252525493     2.38321252525493     0.00000000000000
O     2.38321252525493     0.00000000000000     2.38321252525493
O     0.00000000000000     2.38321252525493     2.38321252525493