CRYSTAL
# Primitive lattice vectors in Angstrom
PRIMVEC
 3.31042752137642 0.00000000000000 0.00000000000000
 -0.00000000000000 3.31042752137642 0.00000000000000
 0.00000000000000 0.00000000000000 3.31042752137642
# Cartesian coordinates in Angstrom.
PRIMCOORD
 4 1
P     0.00000000000000     0.00000000000000     0.00000000000000
O     1.65521376068821     0.00000000000000     0.00000000000000
O     0.00000000000000     1.65521376068821     0.00000000000000
O     0.00000000000000     0.00000000000000     1.65521376068821