CRYSTAL
# Primitive lattice vectors in Angstrom
PRIMVEC
 5.34454368448049 0.00000000000000 0.00000000000000
 -0.00000000000000 5.34454368448049 0.00000000000000
 0.00000000000000 0.00000000000000 5.34454368448049
# Cartesian coordinates in Angstrom.
PRIMCOORD
 10 1
Pa     1.33613592112012     1.33613592112012     1.33613592112012
Pa     4.00840776336037     4.00840776336037     1.33613592112012
Pa     4.00840776336037     1.33613592112012     4.00840776336037
Pa     1.33613592112012     4.00840776336037     4.00840776336037
O     2.67227184224025     0.00000000000000     0.00000000000000
O     0.00000000000000     2.67227184224025     0.00000000000000
O     0.00000000000000     0.00000000000000     2.67227184224025
O     2.67227184224025     2.67227184224025     0.00000000000000
O     2.67227184224025     0.00000000000000     2.67227184224025
O     0.00000000000000     2.67227184224025     2.67227184224025