CRYSTAL
# Primitive lattice vectors in Angstrom
PRIMVEC
 5.36286882278233 0.00000000000000 0.00000000000000
 -0.00000000000000 5.36286882278233 0.00000000000000
 0.00000000000000 0.00000000000000 5.36286882278233
# Cartesian coordinates in Angstrom.
PRIMCOORD
 14 1
Pa     0.00000000000000     0.00000000000000     0.00000000000000
Pa     2.68143441139117     2.68143441139117     0.00000000000000
Pa     2.68143441139117     0.00000000000000     2.68143441139117
Pa     0.00000000000000     2.68143441139117     2.68143441139117
O     2.68143441139117     0.00000000000000     0.00000000000000
O     0.00000000000000     2.68143441139117     0.00000000000000
O     0.00000000000000     0.00000000000000     2.68143441139117
O     2.68143441139117     2.68143441139117     2.68143441139117
O     4.02215161708675     4.02215161708675     1.34071720569558
O     4.02215161708675     1.34071720569558     4.02215161708675
O     1.34071720569558     4.02215161708675     4.02215161708675
O     4.02215161708675     1.34071720569558     1.34071720569558
O     1.34071720569558     4.02215161708675     1.34071720569558
O     1.34071720569558     1.34071720569558     4.02215161708675