CRYSTAL
# Primitive lattice vectors in Angstrom
PRIMVEC
 4.23212636722087 0.00000000000000 0.00000000000000
 -0.00000000000000 4.23212636722087 0.00000000000000
 0.00000000000000 0.00000000000000 4.23212636722087
# Cartesian coordinates in Angstrom.
PRIMCOORD
 4 1
Pa     0.00000000000000     0.00000000000000     0.00000000000000
O     2.11606318361043     0.00000000000000     0.00000000000000
O     0.00000000000000     2.11606318361043     0.00000000000000
O     0.00000000000000     0.00000000000000     2.11606318361043