CRYSTAL
# Primitive lattice vectors in Angstrom
PRIMVEC
 4.23939641319091 0.00000000000000 0.00000000000000
 -0.00000000000000 4.23939641319091 0.00000000000000
 0.00000000000000 0.00000000000000 4.23939641319091
# Cartesian coordinates in Angstrom.
PRIMCOORD
 4 1
Pb     0.00000000000000     0.00000000000000     0.00000000000000
O     2.11969820659545     0.00000000000000     0.00000000000000
O     0.00000000000000     2.11969820659545     0.00000000000000
O     0.00000000000000     0.00000000000000     2.11969820659545