CRYSTAL
# Primitive lattice vectors in Angstrom
PRIMVEC
 5.47820365708851 0.00000000000000 0.00000000000000
 -0.00000000000000 5.47820365708851 0.00000000000000
 0.00000000000000 0.00000000000000 5.47820365708851
# Cartesian coordinates in Angstrom.
PRIMCOORD
 10 1
Pb     1.36955091427212     1.36955091427212     1.36955091427212
Pb     4.10865274281638     4.10865274281638     1.36955091427212
Pb     4.10865274281638     1.36955091427212     4.10865274281638
Pb     1.36955091427212     4.10865274281638     4.10865274281638
O     2.73910182854426     0.00000000000000     0.00000000000000
O     0.00000000000000     2.73910182854426     0.00000000000000
O     0.00000000000000     0.00000000000000     2.73910182854426
O     2.73910182854426     2.73910182854426     0.00000000000000
O     2.73910182854426     0.00000000000000     2.73910182854426
O     0.00000000000000     2.73910182854426     2.73910182854426