CRYSTAL
# Primitive lattice vectors in Angstrom
PRIMVEC
 5.49940251274876 0.00000000000000 0.00000000000000
 -0.00000000000000 5.49940251274876 0.00000000000000
 0.00000000000000 0.00000000000000 5.49940251274876
# Cartesian coordinates in Angstrom.
PRIMCOORD
 14 1
Pb     0.00000000000000     0.00000000000000     0.00000000000000
Pb     2.74970125637438     2.74970125637438     0.00000000000000
Pb     2.74970125637438     0.00000000000000     2.74970125637438
Pb     0.00000000000000     2.74970125637438     2.74970125637438
O     2.74970125637438     0.00000000000000     0.00000000000000
O     0.00000000000000     2.74970125637438     0.00000000000000
O     0.00000000000000     0.00000000000000     2.74970125637438
O     2.74970125637438     2.74970125637438     2.74970125637438
O     4.12455188456157     4.12455188456157     1.37485062818719
O     4.12455188456157     1.37485062818719     4.12455188456157
O     1.37485062818719     4.12455188456157     4.12455188456157
O     4.12455188456157     1.37485062818719     1.37485062818719
O     1.37485062818719     4.12455188456157     1.37485062818719
O     1.37485062818719     1.37485062818719     4.12455188456157