CRYSTAL
# Primitive lattice vectors in Angstrom
PRIMVEC
 3.83861368868933 0.00000000000000 0.00000000000000
 -0.00000000000000 3.83861368868933 0.00000000000000
 0.00000000000000 0.00000000000000 3.83861368868933
# Cartesian coordinates in Angstrom.
PRIMCOORD
 4 1
Pd     0.00000000000000     0.00000000000000     0.00000000000000
O     1.91930684434466     0.00000000000000     0.00000000000000
O     0.00000000000000     1.91930684434466     0.00000000000000
O     0.00000000000000     0.00000000000000     1.91930684434466