CRYSTAL
# Primitive lattice vectors in Angstrom
PRIMVEC
 5.08193962753285 0.00000000000000 0.00000000000000
 -0.00000000000000 5.08193962753285 0.00000000000000
 0.00000000000000 0.00000000000000 5.08193962753285
# Cartesian coordinates in Angstrom.
PRIMCOORD
 14 1
Pd     0.00000000000000     0.00000000000000     0.00000000000000
Pd     2.54096981376643     2.54096981376643     0.00000000000000
Pd     2.54096981376643     0.00000000000000     2.54096981376643
Pd     0.00000000000000     2.54096981376643     2.54096981376643
O     2.54096981376643     0.00000000000000     0.00000000000000
O     0.00000000000000     2.54096981376643     0.00000000000000
O     0.00000000000000     0.00000000000000     2.54096981376643
O     2.54096981376643     2.54096981376643     2.54096981376643
O     3.81145472064964     3.81145472064964     1.27048490688321
O     3.81145472064964     1.27048490688321     3.81145472064964
O     1.27048490688321     3.81145472064964     3.81145472064964
O     3.81145472064964     1.27048490688321     1.27048490688321
O     1.27048490688321     3.81145472064964     1.27048490688321
O     1.27048490688321     1.27048490688321     3.81145472064964