CRYSTAL
# Primitive lattice vectors in Angstrom
PRIMVEC
 4.83453140157728 0.00000000000000 0.00000000000000
 -0.00000000000000 4.83453140157728 0.00000000000000
 0.00000000000000 0.00000000000000 4.83453140157728
# Cartesian coordinates in Angstrom.
PRIMCOORD
 10 1
Pd     1.20863285039432     1.20863285039432     1.20863285039432
Pd     3.62589855118296     3.62589855118296     1.20863285039432
Pd     3.62589855118296     1.20863285039432     3.62589855118296
Pd     1.20863285039432     3.62589855118296     3.62589855118296
O     2.41726570078864     0.00000000000000     0.00000000000000
O     0.00000000000000     2.41726570078864     0.00000000000000
O     0.00000000000000     0.00000000000000     2.41726570078864
O     2.41726570078864     2.41726570078864     0.00000000000000
O     2.41726570078864     0.00000000000000     2.41726570078864
O     0.00000000000000     2.41726570078864     2.41726570078864