CRYSTAL
# Primitive lattice vectors in Angstrom
PRIMVEC
 5.33403597395874 0.00000000000000 0.00000000000000
 -0.00000000000000 5.33403597395874 0.00000000000000
 0.00000000000000 0.00000000000000 5.33403597395874
# Cartesian coordinates in Angstrom.
PRIMCOORD
 14 1
Pm     0.00000000000000     0.00000000000000     0.00000000000000
Pm     2.66701798697937     2.66701798697937     0.00000000000000
Pm     2.66701798697937     0.00000000000000     2.66701798697937
Pm     0.00000000000000     2.66701798697937     2.66701798697937
O     2.66701798697937     0.00000000000000     0.00000000000000
O     0.00000000000000     2.66701798697937     0.00000000000000
O     0.00000000000000     0.00000000000000     2.66701798697937
O     2.66701798697937     2.66701798697937     2.66701798697937
O     4.00052698046906     4.00052698046906     1.33350899348969
O     4.00052698046906     1.33350899348969     4.00052698046906
O     1.33350899348969     4.00052698046906     4.00052698046906
O     4.00052698046906     1.33350899348969     1.33350899348969
O     1.33350899348969     4.00052698046906     1.33350899348969
O     1.33350899348969     1.33350899348969     4.00052698046906