CRYSTAL
# Primitive lattice vectors in Angstrom
PRIMVEC
 5.31368102061479 0.00000000000000 0.00000000000000
 -0.00000000000000 5.31368102061479 0.00000000000000
 0.00000000000000 0.00000000000000 5.31368102061479
# Cartesian coordinates in Angstrom.
PRIMCOORD
 10 1
Pm     1.32842025515369     1.32842025515369     1.32842025515369
Pm     3.98526076546109     3.98526076546109     1.32842025515369
Pm     3.98526076546109     1.32842025515369     3.98526076546109
Pm     1.32842025515369     3.98526076546109     3.98526076546109
O     2.65684051030740     0.00000000000000     0.00000000000000
O     0.00000000000000     2.65684051030740     0.00000000000000
O     0.00000000000000     0.00000000000000     2.65684051030740
O     2.65684051030740     2.65684051030740     0.00000000000000
O     2.65684051030740     0.00000000000000     2.65684051030740
O     0.00000000000000     2.65684051030740     2.65684051030740