CRYSTAL
# Primitive lattice vectors in Angstrom
PRIMVEC
 4.10380845455028 0.00000000000000 0.00000000000000
 -0.00000000000000 4.10380845455028 0.00000000000000
 0.00000000000000 0.00000000000000 4.10380845455028
# Cartesian coordinates in Angstrom.
PRIMCOORD
 4 1
Pm     0.00000000000000     0.00000000000000     0.00000000000000
O     2.05190422727514     0.00000000000000     0.00000000000000
O     0.00000000000000     2.05190422727514     0.00000000000000
O     0.00000000000000     0.00000000000000     2.05190422727514