CRYSTAL
# Primitive lattice vectors in Angstrom
PRIMVEC
 5.47359835556147 0.00000000000000 0.00000000000000
 -0.00000000000000 5.47359835556147 0.00000000000000
 0.00000000000000 0.00000000000000 5.47359835556147
# Cartesian coordinates in Angstrom.
PRIMCOORD
 14 1
Po     0.00000000000000     0.00000000000000     0.00000000000000
Po     2.73679917778073     2.73679917778073     0.00000000000000
Po     2.73679917778073     0.00000000000000     2.73679917778073
Po     0.00000000000000     2.73679917778073     2.73679917778073
O     2.73679917778073     0.00000000000000     0.00000000000000
O     0.00000000000000     2.73679917778073     0.00000000000000
O     0.00000000000000     0.00000000000000     2.73679917778073
O     2.73679917778073     2.73679917778073     2.73679917778073
O     4.10519876667110     4.10519876667110     1.36839958889037
O     4.10519876667110     1.36839958889037     4.10519876667110
O     1.36839958889037     4.10519876667110     4.10519876667110
O     4.10519876667110     1.36839958889037     1.36839958889037
O     1.36839958889037     4.10519876667110     1.36839958889037
O     1.36839958889037     1.36839958889037     4.10519876667110