CRYSTAL
# Primitive lattice vectors in Angstrom
PRIMVEC
 5.46186478109439 0.00000000000000 0.00000000000000
 -0.00000000000000 5.46186478109439 0.00000000000000
 0.00000000000000 0.00000000000000 5.46186478109439
# Cartesian coordinates in Angstrom.
PRIMCOORD
 10 1
Po     1.36546619527359     1.36546619527359     1.36546619527359
Po     4.09639858582079     4.09639858582079     1.36546619527359
Po     4.09639858582079     1.36546619527359     4.09639858582079
Po     1.36546619527359     4.09639858582079     4.09639858582079
O     2.73093239054720     0.00000000000000     0.00000000000000
O     0.00000000000000     2.73093239054720     0.00000000000000
O     0.00000000000000     0.00000000000000     2.73093239054720
O     2.73093239054720     2.73093239054720     0.00000000000000
O     2.73093239054720     0.00000000000000     2.73093239054720
O     0.00000000000000     2.73093239054720     2.73093239054720