CRYSTAL
# Primitive lattice vectors in Angstrom
PRIMVEC
 4.09006787859386 0.00000000000000 0.00000000000000
 -0.00000000000000 4.09006787859386 0.00000000000000
 0.00000000000000 0.00000000000000 4.09006787859386
# Cartesian coordinates in Angstrom.
PRIMCOORD
 4 1
Po     0.00000000000000     0.00000000000000     0.00000000000000
O     2.04503393929693     0.00000000000000     0.00000000000000
O     0.00000000000000     2.04503393929693     0.00000000000000
O     0.00000000000000     0.00000000000000     2.04503393929693