CRYSTAL
# Primitive lattice vectors in Angstrom
PRIMVEC
 5.36998328988448 0.00000000000000 0.00000000000000
 -0.00000000000000 5.36998328988448 0.00000000000000
 0.00000000000000 0.00000000000000 5.36998328988448
# Cartesian coordinates in Angstrom.
PRIMCOORD
 10 1
Pr     1.34249582247112     1.34249582247112     1.34249582247112
Pr     4.02748746741336     4.02748746741336     1.34249582247112
Pr     4.02748746741336     1.34249582247112     4.02748746741336
Pr     1.34249582247112     4.02748746741336     4.02748746741336
O     2.68499164494224     0.00000000000000     0.00000000000000
O     0.00000000000000     2.68499164494224     0.00000000000000
O     0.00000000000000     0.00000000000000     2.68499164494224
O     2.68499164494224     2.68499164494224     0.00000000000000
O     2.68499164494224     0.00000000000000     2.68499164494224
O     0.00000000000000     2.68499164494224     2.68499164494224