CRYSTAL
# Primitive lattice vectors in Angstrom
PRIMVEC
 5.37090353500849 0.00000000000000 0.00000000000000
 -0.00000000000000 5.37090353500849 0.00000000000000
 0.00000000000000 0.00000000000000 5.37090353500849
# Cartesian coordinates in Angstrom.
PRIMCOORD
 14 1
Pr     0.00000000000000     0.00000000000000     0.00000000000000
Pr     2.68545176750425     2.68545176750425     0.00000000000000
Pr     2.68545176750425     0.00000000000000     2.68545176750425
Pr     0.00000000000000     2.68545176750425     2.68545176750425
O     2.68545176750425     0.00000000000000     0.00000000000000
O     0.00000000000000     2.68545176750425     0.00000000000000
O     0.00000000000000     0.00000000000000     2.68545176750425
O     2.68545176750425     2.68545176750425     2.68545176750425
O     4.02817765125637     4.02817765125637     1.34272588375212
O     4.02817765125637     1.34272588375212     4.02817765125637
O     1.34272588375212     4.02817765125637     4.02817765125637
O     4.02817765125637     1.34272588375212     1.34272588375212
O     1.34272588375212     4.02817765125637     1.34272588375212
O     1.34272588375212     1.34272588375212     4.02817765125637