CRYSTAL
# Primitive lattice vectors in Angstrom
PRIMVEC
 4.18603622602116 0.00000000000000 0.00000000000000
 -0.00000000000000 4.18603622602116 0.00000000000000
 0.00000000000000 0.00000000000000 4.18603622602116
# Cartesian coordinates in Angstrom.
PRIMCOORD
 4 1
Pr     0.00000000000000     0.00000000000000     0.00000000000000
O     2.09301811301057     0.00000000000000     0.00000000000000
O     0.00000000000000     2.09301811301057     0.00000000000000
O     0.00000000000000     0.00000000000000     2.09301811301057