CRYSTAL
# Primitive lattice vectors in Angstrom
PRIMVEC
 5.09671569375338 0.00000000000000 0.00000000000000
 -0.00000000000000 5.09671569375338 0.00000000000000
 0.00000000000000 0.00000000000000 5.09671569375338
# Cartesian coordinates in Angstrom.
PRIMCOORD
 14 1
Pt     0.00000000000000     0.00000000000000     0.00000000000000
Pt     2.54835784687669     2.54835784687669     0.00000000000000
Pt     2.54835784687669     0.00000000000000     2.54835784687669
Pt     0.00000000000000     2.54835784687669     2.54835784687669
O     2.54835784687669     0.00000000000000     0.00000000000000
O     0.00000000000000     2.54835784687669     0.00000000000000
O     0.00000000000000     0.00000000000000     2.54835784687669
O     2.54835784687669     2.54835784687669     2.54835784687669
O     3.82253677031504     3.82253677031504     1.27417892343835
O     3.82253677031504     1.27417892343835     3.82253677031504
O     1.27417892343835     3.82253677031504     3.82253677031504
O     3.82253677031504     1.27417892343835     1.27417892343835
O     1.27417892343835     3.82253677031504     1.27417892343835
O     1.27417892343835     1.27417892343835     3.82253677031504