CRYSTAL
# Primitive lattice vectors in Angstrom
PRIMVEC
 3.81620763262505 0.00000000000000 0.00000000000000
 -0.00000000000000 3.81620763262505 0.00000000000000
 0.00000000000000 0.00000000000000 3.81620763262505
# Cartesian coordinates in Angstrom.
PRIMCOORD
 4 1
Pt     0.00000000000000     0.00000000000000     0.00000000000000
O     1.90810381631252     0.00000000000000     0.00000000000000
O     0.00000000000000     1.90810381631252     0.00000000000000
O     0.00000000000000     0.00000000000000     1.90810381631252