CRYSTAL
# Primitive lattice vectors in Angstrom
PRIMVEC
 4.88335678358063 0.00000000000000 0.00000000000000
 -0.00000000000000 4.88335678358063 0.00000000000000
 0.00000000000000 0.00000000000000 4.88335678358063
# Cartesian coordinates in Angstrom.
PRIMCOORD
 10 1
Pt     1.22083919589516     1.22083919589516     1.22083919589516
Pt     3.66251758768547     3.66251758768547     1.22083919589516
Pt     3.66251758768547     1.22083919589516     3.66251758768547
Pt     1.22083919589516     3.66251758768547     3.66251758768547
O     2.44167839179032     0.00000000000000     0.00000000000000
O     0.00000000000000     2.44167839179032     0.00000000000000
O     0.00000000000000     0.00000000000000     2.44167839179032
O     2.44167839179032     2.44167839179032     0.00000000000000
O     2.44167839179032     0.00000000000000     2.44167839179032
O     0.00000000000000     2.44167839179032     2.44167839179032