CRYSTAL
# Primitive lattice vectors in Angstrom
PRIMVEC
 5.23010572002699 0.00000000000000 0.00000000000000
 -0.00000000000000 5.23010572002699 0.00000000000000
 0.00000000000000 0.00000000000000 5.23010572002699
# Cartesian coordinates in Angstrom.
PRIMCOORD
 14 1
Pu     0.00000000000000     0.00000000000000     0.00000000000000
Pu     2.61505286001349     2.61505286001349     0.00000000000000
Pu     2.61505286001349     0.00000000000000     2.61505286001349
Pu     0.00000000000000     2.61505286001349     2.61505286001349
O     2.61505286001349     0.00000000000000     0.00000000000000
O     0.00000000000000     2.61505286001349     0.00000000000000
O     0.00000000000000     0.00000000000000     2.61505286001349
O     2.61505286001349     2.61505286001349     2.61505286001349
O     3.92257929002024     3.92257929002024     1.30752643000675
O     3.92257929002024     1.30752643000675     3.92257929002024
O     1.30752643000675     3.92257929002024     3.92257929002024
O     3.92257929002024     1.30752643000675     1.30752643000675
O     1.30752643000675     3.92257929002024     1.30752643000675
O     1.30752643000675     1.30752643000675     3.92257929002024