CRYSTAL
# Primitive lattice vectors in Angstrom
PRIMVEC
 5.19830655729202 0.00000000000000 0.00000000000000
 -0.00000000000000 5.19830655729202 0.00000000000000
 0.00000000000000 0.00000000000000 5.19830655729202
# Cartesian coordinates in Angstrom.
PRIMCOORD
 10 1
Pu     1.29957663932300     1.29957663932300     1.29957663932300
Pu     3.89872991796901     3.89872991796901     1.29957663932300
Pu     3.89872991796901     1.29957663932300     3.89872991796901
Pu     1.29957663932300     3.89872991796901     3.89872991796901
O     2.59915327864601     0.00000000000000     0.00000000000000
O     0.00000000000000     2.59915327864601     0.00000000000000
O     0.00000000000000     0.00000000000000     2.59915327864601
O     2.59915327864601     2.59915327864601     0.00000000000000
O     2.59915327864601     0.00000000000000     2.59915327864601
O     0.00000000000000     2.59915327864601     2.59915327864601