CRYSTAL
# Primitive lattice vectors in Angstrom
PRIMVEC
 6.09234693277362 0.00000000000000 0.00000000000000
 -0.00000000000000 6.09234693277362 0.00000000000000
 0.00000000000000 0.00000000000000 6.09234693277362
# Cartesian coordinates in Angstrom.
PRIMCOORD
 14 1
Ra     0.00000000000000     0.00000000000000     0.00000000000000
Ra     3.04617346638681     3.04617346638681     0.00000000000000
Ra     3.04617346638681     0.00000000000000     3.04617346638681
Ra     0.00000000000000     3.04617346638681     3.04617346638681
O     3.04617346638681     0.00000000000000     0.00000000000000
O     0.00000000000000     3.04617346638681     0.00000000000000
O     0.00000000000000     0.00000000000000     3.04617346638681
O     3.04617346638681     3.04617346638681     3.04617346638681
O     4.56926019958022     4.56926019958022     1.52308673319341
O     4.56926019958022     1.52308673319341     4.56926019958022
O     1.52308673319341     4.56926019958022     4.56926019958022
O     4.56926019958022     1.52308673319341     1.52308673319341
O     1.52308673319341     4.56926019958022     1.52308673319341
O     1.52308673319341     1.52308673319341     4.56926019958022