CRYSTAL
# Primitive lattice vectors in Angstrom
PRIMVEC
 6.20149023021428 0.00000000000000 0.00000000000000
 -0.00000000000000 6.20149023021428 0.00000000000000
 0.00000000000000 0.00000000000000 6.20149023021428
# Cartesian coordinates in Angstrom.
PRIMCOORD
 10 1
Ra     1.55037255755357     1.55037255755357     1.55037255755357
Ra     4.65111767266071     4.65111767266071     1.55037255755357
Ra     4.65111767266071     1.55037255755357     4.65111767266071
Ra     1.55037255755357     4.65111767266071     4.65111767266071
O     3.10074511510715     0.00000000000000     0.00000000000000
O     0.00000000000000     3.10074511510715     0.00000000000000
O     0.00000000000000     0.00000000000000     3.10074511510715
O     3.10074511510715     3.10074511510715     0.00000000000000
O     3.10074511510715     0.00000000000000     3.10074511510715
O     0.00000000000000     3.10074511510715     3.10074511510715