CRYSTAL
# Primitive lattice vectors in Angstrom
PRIMVEC
 6.28817094045397 0.00000000000000 0.00000000000000
 -0.00000000000000 6.28817094045397 0.00000000000000
 0.00000000000000 0.00000000000000 6.28817094045397
# Cartesian coordinates in Angstrom.
PRIMCOORD
 10 1
Rb     1.57204273511349     1.57204273511349     1.57204273511349
Rb     4.71612820534048     4.71612820534048     1.57204273511349
Rb     4.71612820534048     1.57204273511349     4.71612820534048
Rb     1.57204273511349     4.71612820534048     4.71612820534048
O     3.14408547022699     0.00000000000000     0.00000000000000
O     0.00000000000000     3.14408547022699     0.00000000000000
O     0.00000000000000     0.00000000000000     3.14408547022699
O     3.14408547022699     3.14408547022699     0.00000000000000
O     3.14408547022699     0.00000000000000     3.14408547022699
O     0.00000000000000     3.14408547022699     3.14408547022699