CRYSTAL
# Primitive lattice vectors in Angstrom
PRIMVEC
 4.33435393366891 0.00000000000000 0.00000000000000
 -0.00000000000000 4.33435393366891 0.00000000000000
 0.00000000000000 0.00000000000000 4.33435393366891
# Cartesian coordinates in Angstrom.
PRIMCOORD
 4 1
Rb     0.00000000000000     0.00000000000000     0.00000000000000
O     2.16717696683445     0.00000000000000     0.00000000000000
O     0.00000000000000     2.16717696683445     0.00000000000000
O     0.00000000000000     0.00000000000000     2.16717696683445