CRYSTAL
# Primitive lattice vectors in Angstrom
PRIMVEC
 5.93362611486871 0.00000000000000 0.00000000000000
 -0.00000000000000 5.93362611486871 0.00000000000000
 0.00000000000000 0.00000000000000 5.93362611486871
# Cartesian coordinates in Angstrom.
PRIMCOORD
 14 1
Rb     0.00000000000000     0.00000000000000     0.00000000000000
Rb     2.96681305743436     2.96681305743436     0.00000000000000
Rb     2.96681305743436     0.00000000000000     2.96681305743436
Rb     0.00000000000000     2.96681305743436     2.96681305743436
O     2.96681305743436     0.00000000000000     0.00000000000000
O     0.00000000000000     2.96681305743436     0.00000000000000
O     0.00000000000000     0.00000000000000     2.96681305743436
O     2.96681305743436     2.96681305743436     2.96681305743436
O     4.45021958615153     4.45021958615153     1.48340652871718
O     4.45021958615153     1.48340652871718     4.45021958615153
O     1.48340652871718     4.45021958615153     4.45021958615153
O     4.45021958615153     1.48340652871718     1.48340652871718
O     1.48340652871718     4.45021958615153     1.48340652871718
O     1.48340652871718     1.48340652871718     4.45021958615153