CRYSTAL
# Primitive lattice vectors in Angstrom
PRIMVEC
 4.93415890922909 0.00000000000000 0.00000000000000
 -0.00000000000000 4.93415890922909 0.00000000000000
 0.00000000000000 0.00000000000000 4.93415890922909
# Cartesian coordinates in Angstrom.
PRIMCOORD
 14 1
Re     0.00000000000000     0.00000000000000     0.00000000000000
Re     2.46707945461454     2.46707945461454     0.00000000000000
Re     2.46707945461454     0.00000000000000     2.46707945461454
Re     0.00000000000000     2.46707945461454     2.46707945461454
O     2.46707945461454     0.00000000000000     0.00000000000000
O     0.00000000000000     2.46707945461454     0.00000000000000
O     0.00000000000000     0.00000000000000     2.46707945461454
O     2.46707945461454     2.46707945461454     2.46707945461454
O     3.70061918192182     3.70061918192182     1.23353972730727
O     3.70061918192182     1.23353972730727     3.70061918192182
O     1.23353972730727     3.70061918192182     3.70061918192182
O     3.70061918192182     1.23353972730727     1.23353972730727
O     1.23353972730727     3.70061918192182     1.23353972730727
O     1.23353972730727     1.23353972730727     3.70061918192182