CRYSTAL
# Primitive lattice vectors in Angstrom
PRIMVEC
 4.75050468163624 0.00000000000000 0.00000000000000
 -0.00000000000000 4.75050468163624 0.00000000000000
 0.00000000000000 0.00000000000000 4.75050468163624
# Cartesian coordinates in Angstrom.
PRIMCOORD
 10 1
Re     1.18762617040906     1.18762617040906     1.18762617040906
Re     3.56287851122718     3.56287851122718     1.18762617040906
Re     3.56287851122718     1.18762617040906     3.56287851122718
Re     1.18762617040906     3.56287851122718     3.56287851122718
O     2.37525234081812     0.00000000000000     0.00000000000000
O     0.00000000000000     2.37525234081812     0.00000000000000
O     0.00000000000000     0.00000000000000     2.37525234081812
O     2.37525234081812     2.37525234081812     0.00000000000000
O     2.37525234081812     0.00000000000000     2.37525234081812
O     0.00000000000000     2.37525234081812     2.37525234081812