CRYSTAL
# Primitive lattice vectors in Angstrom
PRIMVEC
 3.74712440410236 0.00000000000000 0.00000000000000
 -0.00000000000000 3.74712440410236 0.00000000000000
 0.00000000000000 0.00000000000000 3.74712440410236
# Cartesian coordinates in Angstrom.
PRIMCOORD
 4 1
Re     0.00000000000000     0.00000000000000     0.00000000000000
O     1.87356220205117     0.00000000000000     0.00000000000000
O     0.00000000000000     1.87356220205117     0.00000000000000
O     0.00000000000000     0.00000000000000     1.87356220205117