CRYSTAL
# Primitive lattice vectors in Angstrom
PRIMVEC
 4.71367823135046 0.00000000000000 0.00000000000000
 -0.00000000000000 4.71367823135046 0.00000000000000
 0.00000000000000 0.00000000000000 4.71367823135046
# Cartesian coordinates in Angstrom.
PRIMCOORD
 10 1
Rh     1.17841955783761     1.17841955783761     1.17841955783761
Rh     3.53525867351285     3.53525867351285     1.17841955783761
Rh     3.53525867351285     1.17841955783761     3.53525867351285
Rh     1.17841955783761     3.53525867351285     3.53525867351285
O     2.35683911567523     0.00000000000000     0.00000000000000
O     0.00000000000000     2.35683911567523     0.00000000000000
O     0.00000000000000     0.00000000000000     2.35683911567523
O     2.35683911567523     2.35683911567523     0.00000000000000
O     2.35683911567523     0.00000000000000     2.35683911567523
O     0.00000000000000     2.35683911567523     2.35683911567523