CRYSTAL
# Primitive lattice vectors in Angstrom
PRIMVEC
 5.00001083124061 0.00000000000000 0.00000000000000
 -0.00000000000000 5.00001083124061 0.00000000000000
 0.00000000000000 0.00000000000000 5.00001083124061
# Cartesian coordinates in Angstrom.
PRIMCOORD
 14 1
Rh     0.00000000000000     0.00000000000000     0.00000000000000
Rh     2.50000541562031     2.50000541562031     0.00000000000000
Rh     2.50000541562031     0.00000000000000     2.50000541562031
Rh     0.00000000000000     2.50000541562031     2.50000541562031
O     2.50000541562031     0.00000000000000     0.00000000000000
O     0.00000000000000     2.50000541562031     0.00000000000000
O     0.00000000000000     0.00000000000000     2.50000541562031
O     2.50000541562031     2.50000541562031     2.50000541562031
O     3.75000812343046     3.75000812343046     1.25000270781015
O     3.75000812343046     1.25000270781015     3.75000812343046
O     1.25000270781015     3.75000812343046     3.75000812343046
O     3.75000812343046     1.25000270781015     1.25000270781015
O     1.25000270781015     3.75000812343046     1.25000270781015
O     1.25000270781015     1.25000270781015     3.75000812343046