CRYSTAL
# Primitive lattice vectors in Angstrom
PRIMVEC
 5.56446149800414 0.00000000000000 0.00000000000000
 -0.00000000000000 5.56446149800414 0.00000000000000
 0.00000000000000 0.00000000000000 5.56446149800414
# Cartesian coordinates in Angstrom.
PRIMCOORD
 14 1
Rn     0.00000000000000     0.00000000000000     0.00000000000000
Rn     2.78223074900207     2.78223074900207     0.00000000000000
Rn     2.78223074900207     0.00000000000000     2.78223074900207
Rn     0.00000000000000     2.78223074900207     2.78223074900207
O     2.78223074900207     0.00000000000000     0.00000000000000
O     0.00000000000000     2.78223074900207     0.00000000000000
O     0.00000000000000     0.00000000000000     2.78223074900207
O     2.78223074900207     2.78223074900207     2.78223074900207
O     4.17334612350310     4.17334612350310     1.39111537450103
O     4.17334612350310     1.39111537450103     4.17334612350310
O     1.39111537450103     4.17334612350310     4.17334612350310
O     4.17334612350310     1.39111537450103     1.39111537450103
O     1.39111537450103     4.17334612350310     1.39111537450103
O     1.39111537450103     1.39111537450103     4.17334612350310