CRYSTAL
# Primitive lattice vectors in Angstrom
PRIMVEC
 5.76391930652391 0.00000000000000 0.00000000000000
 -0.00000000000000 5.76391930652391 0.00000000000000
 0.00000000000000 0.00000000000000 5.76391930652391
# Cartesian coordinates in Angstrom.
PRIMCOORD
 10 1
Rn     1.44097982663098     1.44097982663098     1.44097982663098
Rn     4.32293947989294     4.32293947989294     1.44097982663098
Rn     4.32293947989294     1.44097982663098     4.32293947989294
Rn     1.44097982663098     4.32293947989294     4.32293947989294
O     2.88195965326196     0.00000000000000     0.00000000000000
O     0.00000000000000     2.88195965326196     0.00000000000000
O     0.00000000000000     0.00000000000000     2.88195965326196
O     2.88195965326196     2.88195965326196     0.00000000000000
O     2.88195965326196     0.00000000000000     2.88195965326196
O     0.00000000000000     2.88195965326196     2.88195965326196