CRYSTAL
# Primitive lattice vectors in Angstrom
PRIMVEC
 4.12983030217844 0.00000000000000 0.00000000000000
 -0.00000000000000 4.12983030217844 0.00000000000000
 0.00000000000000 0.00000000000000 4.12983030217844
# Cartesian coordinates in Angstrom.
PRIMCOORD
 4 1
Rn     0.00000000000000     0.00000000000000     0.00000000000000
O     2.06491515108921     0.00000000000000     0.00000000000000
O     0.00000000000000     2.06491515108921     0.00000000000000
O     0.00000000000000     0.00000000000000     2.06491515108921