CRYSTAL
# Primitive lattice vectors in Angstrom
PRIMVEC
 4.95179930916655 0.00000000000000 0.00000000000000
 -0.00000000000000 4.95179930916655 0.00000000000000
 0.00000000000000 0.00000000000000 4.95179930916655
# Cartesian coordinates in Angstrom.
PRIMCOORD
 14 1
Ru     0.00000000000000     0.00000000000000     0.00000000000000
Ru     2.47589965458327     2.47589965458327     0.00000000000000
Ru     2.47589965458327     0.00000000000000     2.47589965458327
Ru     0.00000000000000     2.47589965458327     2.47589965458327
O     2.47589965458327     0.00000000000000     0.00000000000000
O     0.00000000000000     2.47589965458327     0.00000000000000
O     0.00000000000000     0.00000000000000     2.47589965458327
O     2.47589965458327     2.47589965458327     2.47589965458327
O     3.71384948187491     3.71384948187491     1.23794982729164
O     3.71384948187491     1.23794982729164     3.71384948187491
O     1.23794982729164     3.71384948187491     3.71384948187491
O     3.71384948187491     1.23794982729164     1.23794982729164
O     1.23794982729164     3.71384948187491     1.23794982729164
O     1.23794982729164     1.23794982729164     3.71384948187491