CRYSTAL
# Primitive lattice vectors in Angstrom
PRIMVEC
 4.69489706808139 0.00000000000000 0.00000000000000
 -0.00000000000000 4.69489706808139 0.00000000000000
 0.00000000000000 0.00000000000000 4.69489706808139
# Cartesian coordinates in Angstrom.
PRIMCOORD
 10 1
Ru     1.17372426702035     1.17372426702035     1.17372426702035
Ru     3.52117280106105     3.52117280106105     1.17372426702035
Ru     3.52117280106105     1.17372426702035     3.52117280106105
Ru     1.17372426702035     3.52117280106105     3.52117280106105
O     2.34744853404070     0.00000000000000     0.00000000000000
O     0.00000000000000     2.34744853404070     0.00000000000000
O     0.00000000000000     0.00000000000000     2.34744853404070
O     2.34744853404070     2.34744853404070     0.00000000000000
O     2.34744853404070     0.00000000000000     2.34744853404070
O     0.00000000000000     2.34744853404070     2.34744853404070