CRYSTAL
# Primitive lattice vectors in Angstrom
PRIMVEC
 3.71036195751599 0.00000000000000 0.00000000000000
 -0.00000000000000 3.71036195751599 0.00000000000000
 0.00000000000000 0.00000000000000 3.71036195751599
# Cartesian coordinates in Angstrom.
PRIMCOORD
 4 1
Ru     0.00000000000000     0.00000000000000     0.00000000000000
O     1.85518097875799     0.00000000000000     0.00000000000000
O     0.00000000000000     1.85518097875799     0.00000000000000
O     0.00000000000000     0.00000000000000     1.85518097875799