CRYSTAL
# Primitive lattice vectors in Angstrom
PRIMVEC
 5.03231662808893 0.00000000000000 0.00000000000000
 -0.00000000000000 5.03231662808893 0.00000000000000
 0.00000000000000 0.00000000000000 5.03231662808893
# Cartesian coordinates in Angstrom.
PRIMCOORD
 14 1
S     0.00000000000000     0.00000000000000     0.00000000000000
S     2.51615831404446     2.51615831404446     0.00000000000000
S     2.51615831404446     0.00000000000000     2.51615831404446
S     0.00000000000000     2.51615831404446     2.51615831404446
O     2.51615831404446     0.00000000000000     0.00000000000000
O     0.00000000000000     2.51615831404446     0.00000000000000
O     0.00000000000000     0.00000000000000     2.51615831404446
O     2.51615831404446     2.51615831404446     2.51615831404446
O     3.77423747106669     3.77423747106669     1.25807915702223
O     3.77423747106669     1.25807915702223     3.77423747106669
O     1.25807915702223     3.77423747106669     3.77423747106669
O     3.77423747106669     1.25807915702223     1.25807915702223
O     1.25807915702223     3.77423747106669     1.25807915702223
O     1.25807915702223     1.25807915702223     3.77423747106669