CRYSTAL
# Primitive lattice vectors in Angstrom
PRIMVEC
 4.82573665885046 0.00000000000000 0.00000000000000
 -0.00000000000000 4.82573665885046 0.00000000000000
 0.00000000000000 0.00000000000000 4.82573665885046
# Cartesian coordinates in Angstrom.
PRIMCOORD
 10 1
S     1.20643416471261     1.20643416471261     1.20643416471261
S     3.61930249413785     3.61930249413785     1.20643416471261
S     3.61930249413785     1.20643416471261     3.61930249413785
S     1.20643416471261     3.61930249413785     3.61930249413785
O     2.41286832942523     0.00000000000000     0.00000000000000
O     0.00000000000000     2.41286832942523     0.00000000000000
O     0.00000000000000     0.00000000000000     2.41286832942523
O     2.41286832942523     2.41286832942523     0.00000000000000
O     2.41286832942523     0.00000000000000     2.41286832942523
O     0.00000000000000     2.41286832942523     2.41286832942523