CRYSTAL
# Primitive lattice vectors in Angstrom
PRIMVEC
 3.35418527831253 0.00000000000000 0.00000000000000
 -0.00000000000000 3.35418527831253 0.00000000000000
 0.00000000000000 0.00000000000000 3.35418527831253
# Cartesian coordinates in Angstrom.
PRIMCOORD
 4 1
S     0.00000000000000     0.00000000000000     0.00000000000000
O     1.67709263915626     0.00000000000000     0.00000000000000
O     0.00000000000000     1.67709263915626     0.00000000000000
O     0.00000000000000     0.00000000000000     1.67709263915626