CRYSTAL
# Primitive lattice vectors in Angstrom
PRIMVEC
 5.32434323370112 0.00000000000000 0.00000000000000
 -0.00000000000000 5.32434323370112 0.00000000000000
 0.00000000000000 0.00000000000000 5.32434323370112
# Cartesian coordinates in Angstrom.
PRIMCOORD
 10 1
Sb     1.33108580842528     1.33108580842528     1.33108580842528
Sb     3.99325742527584     3.99325742527584     1.33108580842528
Sb     3.99325742527584     1.33108580842528     3.99325742527584
Sb     1.33108580842528     3.99325742527584     3.99325742527584
O     2.66217161685056     0.00000000000000     0.00000000000000
O     0.00000000000000     2.66217161685056     0.00000000000000
O     0.00000000000000     0.00000000000000     2.66217161685056
O     2.66217161685056     2.66217161685056     0.00000000000000
O     2.66217161685056     0.00000000000000     2.66217161685056
O     0.00000000000000     2.66217161685056     2.66217161685056