CRYSTAL
# Primitive lattice vectors in Angstrom
PRIMVEC
 5.31971496090703 0.00000000000000 0.00000000000000
 -0.00000000000000 5.31971496090703 0.00000000000000
 0.00000000000000 0.00000000000000 5.31971496090703
# Cartesian coordinates in Angstrom.
PRIMCOORD
 14 1
Sb     0.00000000000000     0.00000000000000     0.00000000000000
Sb     2.65985748045351     2.65985748045351     0.00000000000000
Sb     2.65985748045351     0.00000000000000     2.65985748045351
Sb     0.00000000000000     2.65985748045351     2.65985748045351
O     2.65985748045351     0.00000000000000     0.00000000000000
O     0.00000000000000     2.65985748045351     0.00000000000000
O     0.00000000000000     0.00000000000000     2.65985748045351
O     2.65985748045351     2.65985748045351     2.65985748045351
O     3.98978622068027     3.98978622068027     1.32992874022676
O     3.98978622068027     1.32992874022676     3.98978622068027
O     1.32992874022676     3.98978622068027     3.98978622068027
O     3.98978622068027     1.32992874022676     1.32992874022676
O     1.32992874022676     3.98978622068027     1.32992874022676
O     1.32992874022676     1.32992874022676     3.98978622068027