CRYSTAL
# Primitive lattice vectors in Angstrom
PRIMVEC
 4.08656679738252 0.00000000000000 0.00000000000000
 -0.00000000000000 4.08656679738252 0.00000000000000
 0.00000000000000 0.00000000000000 4.08656679738252
# Cartesian coordinates in Angstrom.
PRIMCOORD
 4 1
Sc     0.00000000000000     0.00000000000000     0.00000000000000
O     2.04328339869125     0.00000000000000     0.00000000000000
O     0.00000000000000     2.04328339869125     0.00000000000000
O     0.00000000000000     0.00000000000000     2.04328339869125