CRYSTAL
# Primitive lattice vectors in Angstrom
PRIMVEC
 5.15764405286436 0.00000000000000 0.00000000000000
 -0.00000000000000 5.15764405286436 0.00000000000000
 0.00000000000000 0.00000000000000 5.15764405286436
# Cartesian coordinates in Angstrom.
PRIMCOORD
 14 1
Sc     0.00000000000000     0.00000000000000     0.00000000000000
Sc     2.57882202643218     2.57882202643218     0.00000000000000
Sc     2.57882202643218     0.00000000000000     2.57882202643218
Sc     0.00000000000000     2.57882202643218     2.57882202643218
O     2.57882202643218     0.00000000000000     0.00000000000000
O     0.00000000000000     2.57882202643218     0.00000000000000
O     0.00000000000000     0.00000000000000     2.57882202643218
O     2.57882202643218     2.57882202643218     2.57882202643218
O     3.86823303964827     3.86823303964827     1.28941101321609
O     3.86823303964827     1.28941101321609     3.86823303964827
O     1.28941101321609     3.86823303964827     3.86823303964827
O     3.86823303964827     1.28941101321609     1.28941101321609
O     1.28941101321609     3.86823303964827     1.28941101321609
O     1.28941101321609     1.28941101321609     3.86823303964827