CRYSTAL
# Primitive lattice vectors in Angstrom
PRIMVEC
 4.93640323665727 0.00000000000000 0.00000000000000
 -0.00000000000000 4.93640323665727 0.00000000000000
 0.00000000000000 0.00000000000000 4.93640323665727
# Cartesian coordinates in Angstrom.
PRIMCOORD
 10 1
Sc     1.23410080916432     1.23410080916432     1.23410080916432
Sc     3.70230242749295     3.70230242749295     1.23410080916432
Sc     3.70230242749295     1.23410080916432     3.70230242749295
Sc     1.23410080916432     3.70230242749295     3.70230242749295
O     2.46820161832864     0.00000000000000     0.00000000000000
O     0.00000000000000     2.46820161832864     0.00000000000000
O     0.00000000000000     0.00000000000000     2.46820161832864
O     2.46820161832864     2.46820161832864     0.00000000000000
O     2.46820161832864     0.00000000000000     2.46820161832864
O     0.00000000000000     2.46820161832864     2.46820161832864