CRYSTAL
# Primitive lattice vectors in Angstrom
PRIMVEC
 3.63656612393272 0.00000000000000 0.00000000000000
 -0.00000000000000 3.63656612393272 0.00000000000000
 0.00000000000000 0.00000000000000 3.63656612393272
# Cartesian coordinates in Angstrom.
PRIMCOORD
 4 1
Se     0.00000000000000     0.00000000000000     0.00000000000000
O     1.81828306196635     0.00000000000000     0.00000000000000
O     0.00000000000000     1.81828306196635     0.00000000000000
O     0.00000000000000     0.00000000000000     1.81828306196635