CRYSTAL
# Primitive lattice vectors in Angstrom
PRIMVEC
 5.02681423395116 0.00000000000000 0.00000000000000
 -0.00000000000000 5.02681423395116 0.00000000000000
 0.00000000000000 0.00000000000000 5.02681423395116
# Cartesian coordinates in Angstrom.
PRIMCOORD
 10 1
Se     1.25670355848779     1.25670355848779     1.25670355848779
Se     3.77011067546337     3.77011067546337     1.25670355848779
Se     3.77011067546337     1.25670355848779     3.77011067546337
Se     1.25670355848779     3.77011067546337     3.77011067546337
O     2.51340711697558     0.00000000000000     0.00000000000000
O     0.00000000000000     2.51340711697558     0.00000000000000
O     0.00000000000000     0.00000000000000     2.51340711697558
O     2.51340711697558     2.51340711697558     0.00000000000000
O     2.51340711697558     0.00000000000000     2.51340711697558
O     0.00000000000000     2.51340711697558     2.51340711697558