CRYSTAL
# Primitive lattice vectors in Angstrom
PRIMVEC
 5.15925961190744 0.00000000000000 0.00000000000000
 -0.00000000000000 5.15925961190744 0.00000000000000
 0.00000000000000 0.00000000000000 5.15925961190744
# Cartesian coordinates in Angstrom.
PRIMCOORD
 14 1
Se     0.00000000000000     0.00000000000000     0.00000000000000
Se     2.57962980595372     2.57962980595372     0.00000000000000
Se     2.57962980595372     0.00000000000000     2.57962980595372
Se     0.00000000000000     2.57962980595372     2.57962980595372
O     2.57962980595372     0.00000000000000     0.00000000000000
O     0.00000000000000     2.57962980595372     0.00000000000000
O     0.00000000000000     0.00000000000000     2.57962980595372
O     2.57962980595372     2.57962980595372     2.57962980595372
O     3.86944470893058     3.86944470893058     1.28981490297686
O     3.86944470893058     1.28981490297686     3.86944470893058
O     1.28981490297686     3.86944470893058     3.86944470893058
O     3.86944470893058     1.28981490297686     1.28981490297686
O     1.28981490297686     3.86944470893058     1.28981490297686
O     1.28981490297686     1.28981490297686     3.86944470893058