CRYSTAL
# Primitive lattice vectors in Angstrom
PRIMVEC
 4.55235312877311 0.00000000000000 0.00000000000000
 -0.00000000000000 4.55235312877311 0.00000000000000
 0.00000000000000 0.00000000000000 4.55235312877311
# Cartesian coordinates in Angstrom.
PRIMCOORD
 10 1
Si     1.13808828219328     1.13808828219328     1.13808828219328
Si     3.41426484657983     3.41426484657983     1.13808828219328
Si     3.41426484657983     1.13808828219328     3.41426484657983
Si     1.13808828219328     3.41426484657983     3.41426484657983
O     2.27617656438656     0.00000000000000     0.00000000000000
O     0.00000000000000     2.27617656438656     0.00000000000000
O     0.00000000000000     0.00000000000000     2.27617656438656
O     2.27617656438656     2.27617656438656     0.00000000000000
O     2.27617656438656     0.00000000000000     2.27617656438656
O     0.00000000000000     2.27617656438656     2.27617656438656