CRYSTAL
# Primitive lattice vectors in Angstrom
PRIMVEC
 4.89381530384583 0.00000000000000 0.00000000000000
 -0.00000000000000 4.89381530384583 0.00000000000000
 0.00000000000000 0.00000000000000 4.89381530384583
# Cartesian coordinates in Angstrom.
PRIMCOORD
 14 1
Si     0.00000000000000     0.00000000000000     0.00000000000000
Si     2.44690765192291     2.44690765192291     0.00000000000000
Si     2.44690765192291     0.00000000000000     2.44690765192291
Si     0.00000000000000     2.44690765192291     2.44690765192291
O     2.44690765192291     0.00000000000000     0.00000000000000
O     0.00000000000000     2.44690765192291     0.00000000000000
O     0.00000000000000     0.00000000000000     2.44690765192291
O     2.44690765192291     2.44690765192291     2.44690765192291
O     3.67036147788437     3.67036147788437     1.22345382596146
O     3.67036147788437     1.22345382596146     3.67036147788437
O     1.22345382596146     3.67036147788437     3.67036147788437
O     3.67036147788437     1.22345382596146     1.22345382596146
O     1.22345382596146     3.67036147788437     1.22345382596146
O     1.22345382596146     1.22345382596146     3.67036147788437