CRYSTAL
# Primitive lattice vectors in Angstrom
PRIMVEC
 4.09462715806924 0.00000000000000 0.00000000000000
 -0.00000000000000 4.09462715806924 0.00000000000000
 0.00000000000000 0.00000000000000 4.09462715806924
# Cartesian coordinates in Angstrom.
PRIMCOORD
 4 1
Sm     0.00000000000000     0.00000000000000     0.00000000000000
O     2.04731357903462     0.00000000000000     0.00000000000000
O     0.00000000000000     2.04731357903462     0.00000000000000
O     0.00000000000000     0.00000000000000     2.04731357903462