CRYSTAL
# Primitive lattice vectors in Angstrom
PRIMVEC
 5.29300734129386 0.00000000000000 0.00000000000000
 -0.00000000000000 5.29300734129386 0.00000000000000
 0.00000000000000 0.00000000000000 5.29300734129386
# Cartesian coordinates in Angstrom.
PRIMCOORD
 10 1
Sm     1.32325183532346     1.32325183532346     1.32325183532346
Sm     3.96975550597040     3.96975550597040     1.32325183532346
Sm     3.96975550597040     1.32325183532346     3.96975550597040
Sm     1.32325183532346     3.96975550597040     3.96975550597040
O     2.64650367064694     0.00000000000000     0.00000000000000
O     0.00000000000000     2.64650367064694     0.00000000000000
O     0.00000000000000     0.00000000000000     2.64650367064694
O     2.64650367064694     2.64650367064694     0.00000000000000
O     2.64650367064694     0.00000000000000     2.64650367064694
O     0.00000000000000     2.64650367064694     2.64650367064694