CRYSTAL
# Primitive lattice vectors in Angstrom
PRIMVEC
 5.32352733926004 0.00000000000000 0.00000000000000
 -0.00000000000000 5.32352733926004 0.00000000000000
 0.00000000000000 0.00000000000000 5.32352733926004
# Cartesian coordinates in Angstrom.
PRIMCOORD
 14 1
Sm     0.00000000000000     0.00000000000000     0.00000000000000
Sm     2.66176366963002     2.66176366963002     0.00000000000000
Sm     2.66176366963002     0.00000000000000     2.66176366963002
Sm     0.00000000000000     2.66176366963002     2.66176366963002
O     2.66176366963002     0.00000000000000     0.00000000000000
O     0.00000000000000     2.66176366963002     0.00000000000000
O     0.00000000000000     0.00000000000000     2.66176366963002
O     2.66176366963002     2.66176366963002     2.66176366963002
O     3.99264550444503     3.99264550444503     1.33088183481501
O     3.99264550444503     1.33088183481501     3.99264550444503
O     1.33088183481501     3.99264550444503     3.99264550444503
O     3.99264550444503     1.33088183481501     1.33088183481501
O     1.33088183481501     3.99264550444503     1.33088183481501
O     1.33088183481501     1.33088183481501     3.99264550444503