CRYSTAL
# Primitive lattice vectors in Angstrom
PRIMVEC
 5.27587210327043 0.00000000000000 0.00000000000000
 -0.00000000000000 5.27587210327043 0.00000000000000
 0.00000000000000 0.00000000000000 5.27587210327043
# Cartesian coordinates in Angstrom.
PRIMCOORD
 14 1
Sn     0.00000000000000     0.00000000000000     0.00000000000000
Sn     2.63793605163521     2.63793605163521     0.00000000000000
Sn     2.63793605163521     0.00000000000000     2.63793605163521
Sn     0.00000000000000     2.63793605163521     2.63793605163521
O     2.63793605163521     0.00000000000000     0.00000000000000
O     0.00000000000000     2.63793605163521     0.00000000000000
O     0.00000000000000     0.00000000000000     2.63793605163521
O     2.63793605163521     2.63793605163521     2.63793605163521
O     3.95690407745282     3.95690407745282     1.31896802581761
O     3.95690407745282     1.31896802581761     3.95690407745282
O     1.31896802581761     3.95690407745282     3.95690407745282
O     3.95690407745282     1.31896802581761     1.31896802581761
O     1.31896802581761     3.95690407745282     1.31896802581761
O     1.31896802581761     1.31896802581761     3.95690407745282