CRYSTAL
# Primitive lattice vectors in Angstrom
PRIMVEC
 5.18262830132407 0.00000000000000 0.00000000000000
 -0.00000000000000 5.18262830132407 0.00000000000000
 0.00000000000000 0.00000000000000 5.18262830132407
# Cartesian coordinates in Angstrom.
PRIMCOORD
 10 1
Sn     1.29565707533102     1.29565707533102     1.29565707533102
Sn     3.88697122599305     3.88697122599305     1.29565707533102
Sn     3.88697122599305     1.29565707533102     3.88697122599305
Sn     1.29565707533102     3.88697122599305     3.88697122599305
O     2.59131415066204     0.00000000000000     0.00000000000000
O     0.00000000000000     2.59131415066204     0.00000000000000
O     0.00000000000000     0.00000000000000     2.59131415066204
O     2.59131415066204     2.59131415066204     0.00000000000000
O     2.59131415066204     0.00000000000000     2.59131415066204
O     0.00000000000000     2.59131415066204     2.59131415066204