CRYSTAL
# Primitive lattice vectors in Angstrom
PRIMVEC
 4.03812690378992 0.00000000000000 0.00000000000000
 -0.00000000000000 4.03812690378992 0.00000000000000
 0.00000000000000 0.00000000000000 4.03812690378992
# Cartesian coordinates in Angstrom.
PRIMCOORD
 4 1
Sn     0.00000000000000     0.00000000000000     0.00000000000000
O     2.01906345189496     0.00000000000000     0.00000000000000
O     0.00000000000000     2.01906345189496     0.00000000000000
O     0.00000000000000     0.00000000000000     2.01906345189496