CRYSTAL
# Primitive lattice vectors in Angstrom
PRIMVEC
 4.76423014763227 0.00000000000000 0.00000000000000
 -0.00000000000000 4.76423014763227 0.00000000000000
 0.00000000000000 0.00000000000000 4.76423014763227
# Cartesian coordinates in Angstrom.
PRIMCOORD
 4 1
Sr     0.00000000000000     0.00000000000000     0.00000000000000
O     2.38211507381613     0.00000000000000     0.00000000000000
O     0.00000000000000     2.38211507381613     0.00000000000000
O     0.00000000000000     0.00000000000000     2.38211507381613