CRYSTAL
# Primitive lattice vectors in Angstrom
PRIMVEC
 5.71429334137108 0.00000000000000 0.00000000000000
 -0.00000000000000 5.71429334137108 0.00000000000000
 0.00000000000000 0.00000000000000 5.71429334137108
# Cartesian coordinates in Angstrom.
PRIMCOORD
 10 1
Sr     1.42857333534277     1.42857333534277     1.42857333534277
Sr     4.28572000602831     4.28572000602831     1.42857333534277
Sr     4.28572000602831     1.42857333534277     4.28572000602831
Sr     1.42857333534277     4.28572000602831     4.28572000602831
O     2.85714667068554     0.00000000000000     0.00000000000000
O     0.00000000000000     2.85714667068554     0.00000000000000
O     0.00000000000000     0.00000000000000     2.85714667068554
O     2.85714667068554     2.85714667068554     0.00000000000000
O     2.85714667068554     0.00000000000000     2.85714667068554
O     0.00000000000000     2.85714667068554     2.85714667068554