CRYSTAL
# Primitive lattice vectors in Angstrom
PRIMVEC
 5.69641400868113 0.00000000000000 0.00000000000000
 -0.00000000000000 5.69641400868113 0.00000000000000
 0.00000000000000 0.00000000000000 5.69641400868113
# Cartesian coordinates in Angstrom.
PRIMCOORD
 14 1
Sr     0.00000000000000     0.00000000000000     0.00000000000000
Sr     2.84820700434057     2.84820700434057     0.00000000000000
Sr     2.84820700434057     0.00000000000000     2.84820700434057
Sr     0.00000000000000     2.84820700434057     2.84820700434057
O     2.84820700434057     0.00000000000000     0.00000000000000
O     0.00000000000000     2.84820700434057     0.00000000000000
O     0.00000000000000     0.00000000000000     2.84820700434057
O     2.84820700434057     2.84820700434057     2.84820700434057
O     4.27231050651085     4.27231050651085     1.42410350217028
O     4.27231050651085     1.42410350217028     4.27231050651085
O     1.42410350217028     4.27231050651085     4.27231050651085
O     4.27231050651085     1.42410350217028     1.42410350217028
O     1.42410350217028     4.27231050651085     1.42410350217028
O     1.42410350217028     1.42410350217028     4.27231050651085