CRYSTAL
# Primitive lattice vectors in Angstrom
PRIMVEC
 4.88088238478668 0.00000000000000 0.00000000000000
 -0.00000000000000 4.88088238478668 0.00000000000000
 0.00000000000000 0.00000000000000 4.88088238478668
# Cartesian coordinates in Angstrom.
PRIMCOORD
 10 1
Ta     1.22022059619667     1.22022059619667     1.22022059619667
Ta     3.66066178859001     3.66066178859001     1.22022059619667
Ta     3.66066178859001     1.22022059619667     3.66066178859001
Ta     1.22022059619667     3.66066178859001     3.66066178859001
O     2.44044119239334     0.00000000000000     0.00000000000000
O     0.00000000000000     2.44044119239334     0.00000000000000
O     0.00000000000000     0.00000000000000     2.44044119239334
O     2.44044119239334     2.44044119239334     0.00000000000000
O     2.44044119239334     0.00000000000000     2.44044119239334
O     0.00000000000000     2.44044119239334     2.44044119239334