CRYSTAL
# Primitive lattice vectors in Angstrom
PRIMVEC
 3.92210059893923 0.00000000000000 0.00000000000000
 -0.00000000000000 3.92210059893923 0.00000000000000
 0.00000000000000 0.00000000000000 3.92210059893923
# Cartesian coordinates in Angstrom.
PRIMCOORD
 4 1
Ta     0.00000000000000     0.00000000000000     0.00000000000000
O     1.96105029946961     0.00000000000000     0.00000000000000
O     0.00000000000000     1.96105029946961     0.00000000000000
O     0.00000000000000     0.00000000000000     1.96105029946961