CRYSTAL
# Primitive lattice vectors in Angstrom
PRIMVEC
 5.02671879564111 0.00000000000000 0.00000000000000
 -0.00000000000000 5.02671879564111 0.00000000000000
 0.00000000000000 0.00000000000000 5.02671879564111
# Cartesian coordinates in Angstrom.
PRIMCOORD
 14 1
Ta     0.00000000000000     0.00000000000000     0.00000000000000
Ta     2.51335939782055     2.51335939782055     0.00000000000000
Ta     2.51335939782055     0.00000000000000     2.51335939782055
Ta     0.00000000000000     2.51335939782055     2.51335939782055
O     2.51335939782055     0.00000000000000     0.00000000000000
O     0.00000000000000     2.51335939782055     0.00000000000000
O     0.00000000000000     0.00000000000000     2.51335939782055
O     2.51335939782055     2.51335939782055     2.51335939782055
O     3.77003909673083     3.77003909673083     1.25667969891028
O     3.77003909673083     1.25667969891028     3.77003909673083
O     1.25667969891028     3.77003909673083     3.77003909673083
O     3.77003909673083     1.25667969891028     1.25667969891028
O     1.25667969891028     3.77003909673083     1.25667969891028
O     1.25667969891028     1.25667969891028     3.77003909673083