CRYSTAL
# Primitive lattice vectors in Angstrom
PRIMVEC
 5.24705822283647 0.00000000000000 0.00000000000000
 -0.00000000000000 5.24705822283647 0.00000000000000
 0.00000000000000 0.00000000000000 5.24705822283647
# Cartesian coordinates in Angstrom.
PRIMCOORD
 10 1
Tb     1.31176455570911     1.31176455570911     1.31176455570911
Tb     3.93529366712735     3.93529366712735     1.31176455570911
Tb     3.93529366712735     1.31176455570911     3.93529366712735
Tb     1.31176455570911     3.93529366712735     3.93529366712735
O     2.62352911141824     0.00000000000000     0.00000000000000
O     0.00000000000000     2.62352911141824     0.00000000000000
O     0.00000000000000     0.00000000000000     2.62352911141824
O     2.62352911141824     2.62352911141824     0.00000000000000
O     2.62352911141824     0.00000000000000     2.62352911141824
O     0.00000000000000     2.62352911141824     2.62352911141824