CRYSTAL
# Primitive lattice vectors in Angstrom
PRIMVEC
 5.30657705512609 0.00000000000000 0.00000000000000
 -0.00000000000000 5.30657705512609 0.00000000000000
 0.00000000000000 0.00000000000000 5.30657705512609
# Cartesian coordinates in Angstrom.
PRIMCOORD
 14 1
Tb     0.00000000000000     0.00000000000000     0.00000000000000
Tb     2.65328852756304     2.65328852756304     0.00000000000000
Tb     2.65328852756304     0.00000000000000     2.65328852756304
Tb     0.00000000000000     2.65328852756304     2.65328852756304
O     2.65328852756304     0.00000000000000     0.00000000000000
O     0.00000000000000     2.65328852756304     0.00000000000000
O     0.00000000000000     0.00000000000000     2.65328852756304
O     2.65328852756304     2.65328852756304     2.65328852756304
O     3.97993279134457     3.97993279134457     1.32664426378152
O     3.97993279134457     1.32664426378152     3.97993279134457
O     1.32664426378152     3.97993279134457     3.97993279134457
O     3.97993279134457     1.32664426378152     1.32664426378152
O     1.32664426378152     3.97993279134457     1.32664426378152
O     1.32664426378152     1.32664426378152     3.97993279134457