CRYSTAL
# Primitive lattice vectors in Angstrom
PRIMVEC
 4.09580056412914 0.00000000000000 0.00000000000000
 -0.00000000000000 4.09580056412914 0.00000000000000
 0.00000000000000 0.00000000000000 4.09580056412914
# Cartesian coordinates in Angstrom.
PRIMCOORD
 4 1
Tb     0.00000000000000     0.00000000000000     0.00000000000000
O     2.04790028206457     0.00000000000000     0.00000000000000
O     0.00000000000000     2.04790028206457     0.00000000000000
O     0.00000000000000     0.00000000000000     2.04790028206457