CRYSTAL
# Primitive lattice vectors in Angstrom
PRIMVEC
 3.72905020043506 0.00000000000000 0.00000000000000
 -0.00000000000000 3.72905020043506 0.00000000000000
 0.00000000000000 0.00000000000000 3.72905020043506
# Cartesian coordinates in Angstrom.
PRIMCOORD
 4 1
Tc     0.00000000000000     0.00000000000000     0.00000000000000
O     1.86452510021753     0.00000000000000     0.00000000000000
O     0.00000000000000     1.86452510021753     0.00000000000000
O     0.00000000000000     0.00000000000000     1.86452510021753