CRYSTAL
# Primitive lattice vectors in Angstrom
PRIMVEC
 4.92987812613213 0.00000000000000 0.00000000000000
 -0.00000000000000 4.92987812613213 0.00000000000000
 0.00000000000000 0.00000000000000 4.92987812613213
# Cartesian coordinates in Angstrom.
PRIMCOORD
 14 1
Tc     0.00000000000000     0.00000000000000     0.00000000000000
Tc     2.46493906306607     2.46493906306607     0.00000000000000
Tc     2.46493906306607     0.00000000000000     2.46493906306607
Tc     0.00000000000000     2.46493906306607     2.46493906306607
O     2.46493906306607     0.00000000000000     0.00000000000000
O     0.00000000000000     2.46493906306607     0.00000000000000
O     0.00000000000000     0.00000000000000     2.46493906306607
O     2.46493906306607     2.46493906306607     2.46493906306607
O     3.69740859459910     3.69740859459910     1.23246953153303
O     3.69740859459910     1.23246953153303     3.69740859459910
O     1.23246953153303     3.69740859459910     3.69740859459910
O     3.69740859459910     1.23246953153303     1.23246953153303
O     1.23246953153303     3.69740859459910     1.23246953153303
O     1.23246953153303     1.23246953153303     3.69740859459910