CRYSTAL
# Primitive lattice vectors in Angstrom
PRIMVEC
 4.72600523995688 0.00000000000000 0.00000000000000
 -0.00000000000000 4.72600523995688 0.00000000000000
 0.00000000000000 0.00000000000000 4.72600523995688
# Cartesian coordinates in Angstrom.
PRIMCOORD
 10 1
Tc     1.18150130998922     1.18150130998922     1.18150130998922
Tc     3.54450392996766     3.54450392996766     1.18150130998922
Tc     3.54450392996766     1.18150130998922     3.54450392996766
Tc     1.18150130998922     3.54450392996766     3.54450392996766
O     2.36300261997844     0.00000000000000     0.00000000000000
O     0.00000000000000     2.36300261997844     0.00000000000000
O     0.00000000000000     0.00000000000000     2.36300261997844
O     2.36300261997844     2.36300261997844     0.00000000000000
O     2.36300261997844     0.00000000000000     2.36300261997844
O     0.00000000000000     2.36300261997844     2.36300261997844