CRYSTAL
# Primitive lattice vectors in Angstrom
PRIMVEC
 5.34838344696740 0.00000000000000 0.00000000000000
 -0.00000000000000 5.34838344696740 0.00000000000000
 0.00000000000000 0.00000000000000 5.34838344696740
# Cartesian coordinates in Angstrom.
PRIMCOORD
 14 1
Te     0.00000000000000     0.00000000000000     0.00000000000000
Te     2.67419172348370     2.67419172348370     0.00000000000000
Te     2.67419172348370     0.00000000000000     2.67419172348370
Te     0.00000000000000     2.67419172348370     2.67419172348370
O     2.67419172348370     0.00000000000000     0.00000000000000
O     0.00000000000000     2.67419172348370     0.00000000000000
O     0.00000000000000     0.00000000000000     2.67419172348370
O     2.67419172348370     2.67419172348370     2.67419172348370
O     4.01128758522555     4.01128758522555     1.33709586174185
O     4.01128758522555     1.33709586174185     4.01128758522555
O     1.33709586174185     4.01128758522555     4.01128758522555
O     4.01128758522555     1.33709586174185     1.33709586174185
O     1.33709586174185     4.01128758522555     1.33709586174185
O     1.33709586174185     1.33709586174185     4.01128758522555