CRYSTAL
# Primitive lattice vectors in Angstrom
PRIMVEC
 5.33150840583194 0.00000000000000 0.00000000000000
 -0.00000000000000 5.33150840583194 0.00000000000000
 0.00000000000000 0.00000000000000 5.33150840583194
# Cartesian coordinates in Angstrom.
PRIMCOORD
 10 1
Te     1.33287710145798     1.33287710145798     1.33287710145798
Te     3.99863130437396     3.99863130437396     1.33287710145798
Te     3.99863130437396     1.33287710145798     3.99863130437396
Te     1.33287710145798     3.99863130437396     3.99863130437396
O     2.66575420291598     0.00000000000000     0.00000000000000
O     0.00000000000000     2.66575420291598     0.00000000000000
O     0.00000000000000     0.00000000000000     2.66575420291598
O     2.66575420291598     2.66575420291598     0.00000000000000
O     2.66575420291598     0.00000000000000     2.66575420291598
O     0.00000000000000     2.66575420291598     2.66575420291598