CRYSTAL
# Primitive lattice vectors in Angstrom
PRIMVEC
 4.37776061404882 0.00000000000000 0.00000000000000
 -0.00000000000000 4.37776061404882 0.00000000000000
 0.00000000000000 0.00000000000000 4.37776061404882
# Cartesian coordinates in Angstrom.
PRIMCOORD
 4 1
Th     0.00000000000000     0.00000000000000     0.00000000000000
O     2.18888030702441     0.00000000000000     0.00000000000000
O     0.00000000000000     2.18888030702441     0.00000000000000
O     0.00000000000000     0.00000000000000     2.18888030702441