CRYSTAL
# Primitive lattice vectors in Angstrom
PRIMVEC
 5.56215674833608 0.00000000000000 0.00000000000000
 -0.00000000000000 5.56215674833608 0.00000000000000
 0.00000000000000 0.00000000000000 5.56215674833608
# Cartesian coordinates in Angstrom.
PRIMCOORD
 14 1
Th     0.00000000000000     0.00000000000000     0.00000000000000
Th     2.78107837416804     2.78107837416804     0.00000000000000
Th     2.78107837416804     0.00000000000000     2.78107837416804
Th     0.00000000000000     2.78107837416804     2.78107837416804
O     2.78107837416804     0.00000000000000     0.00000000000000
O     0.00000000000000     2.78107837416804     0.00000000000000
O     0.00000000000000     0.00000000000000     2.78107837416804
O     2.78107837416804     2.78107837416804     2.78107837416804
O     4.17161756125206     4.17161756125206     1.39053918708402
O     4.17161756125206     1.39053918708402     4.17161756125206
O     1.39053918708402     4.17161756125206     4.17161756125206
O     4.17161756125206     1.39053918708402     1.39053918708402
O     1.39053918708402     4.17161756125206     1.39053918708402
O     1.39053918708402     1.39053918708402     4.17161756125206