CRYSTAL
# Primitive lattice vectors in Angstrom
PRIMVEC
 5.52918566894686 0.00000000000000 0.00000000000000
 -0.00000000000000 5.52918566894686 0.00000000000000
 0.00000000000000 0.00000000000000 5.52918566894686
# Cartesian coordinates in Angstrom.
PRIMCOORD
 10 1
Th     1.38229641723671     1.38229641723671     1.38229641723671
Th     4.14688925171015     4.14688925171015     1.38229641723671
Th     4.14688925171015     1.38229641723671     4.14688925171015
Th     1.38229641723671     4.14688925171015     4.14688925171015
O     2.76459283447343     0.00000000000000     0.00000000000000
O     0.00000000000000     2.76459283447343     0.00000000000000
O     0.00000000000000     0.00000000000000     2.76459283447343
O     2.76459283447343     2.76459283447343     0.00000000000000
O     2.76459283447343     0.00000000000000     2.76459283447343
O     0.00000000000000     2.76459283447343     2.76459283447343