CRYSTAL
# Primitive lattice vectors in Angstrom
PRIMVEC
 4.96951742617573 0.00000000000000 0.00000000000000
 -0.00000000000000 4.96951742617573 0.00000000000000
 0.00000000000000 0.00000000000000 4.96951742617573
# Cartesian coordinates in Angstrom.
PRIMCOORD
 14 1
Ti     0.00000000000000     0.00000000000000     0.00000000000000
Ti     2.48475871308786     2.48475871308786     0.00000000000000
Ti     2.48475871308786     0.00000000000000     2.48475871308786
Ti     0.00000000000000     2.48475871308786     2.48475871308786
O     2.48475871308786     0.00000000000000     0.00000000000000
O     0.00000000000000     2.48475871308786     0.00000000000000
O     0.00000000000000     0.00000000000000     2.48475871308786
O     2.48475871308786     2.48475871308786     2.48475871308786
O     3.72713806963180     3.72713806963180     1.24237935654393
O     3.72713806963180     1.24237935654393     3.72713806963180
O     1.24237935654393     3.72713806963180     3.72713806963180
O     3.72713806963180     1.24237935654393     1.24237935654393
O     1.24237935654393     3.72713806963180     1.24237935654393
O     1.24237935654393     1.24237935654393     3.72713806963180