CRYSTAL
# Primitive lattice vectors in Angstrom
PRIMVEC
 3.82000984095160 0.00000000000000 0.00000000000000
 -0.00000000000000 3.82000984095160 0.00000000000000
 0.00000000000000 0.00000000000000 3.82000984095160
# Cartesian coordinates in Angstrom.
PRIMCOORD
 4 1
Ti     0.00000000000000     0.00000000000000     0.00000000000000
O     1.91000492047580     0.00000000000000     0.00000000000000
O     0.00000000000000     1.91000492047580     0.00000000000000
O     0.00000000000000     0.00000000000000     1.91000492047580