CRYSTAL
# Primitive lattice vectors in Angstrom
PRIMVEC
 4.71875404078933 0.00000000000000 0.00000000000000
 -0.00000000000000 4.71875404078933 0.00000000000000
 0.00000000000000 0.00000000000000 4.71875404078933
# Cartesian coordinates in Angstrom.
PRIMCOORD
 10 1
Ti     1.17968851019733     1.17968851019733     1.17968851019733
Ti     3.53906553059200     3.53906553059200     1.17968851019733
Ti     3.53906553059200     1.17968851019733     3.53906553059200
Ti     1.17968851019733     3.53906553059200     3.53906553059200
O     2.35937702039467     0.00000000000000     0.00000000000000
O     0.00000000000000     2.35937702039467     0.00000000000000
O     0.00000000000000     0.00000000000000     2.35937702039467
O     2.35937702039467     2.35937702039467     0.00000000000000
O     2.35937702039467     0.00000000000000     2.35937702039467
O     0.00000000000000     2.35937702039467     2.35937702039467