CRYSTAL
# Primitive lattice vectors in Angstrom
PRIMVEC
 5.45973872442699 0.00000000000000 0.00000000000000
 -0.00000000000000 5.45973872442699 0.00000000000000
 0.00000000000000 0.00000000000000 5.45973872442699
# Cartesian coordinates in Angstrom.
PRIMCOORD
 14 1
Tl     0.00000000000000     0.00000000000000     0.00000000000000
Tl     2.72986936221350     2.72986936221350     0.00000000000000
Tl     2.72986936221350     0.00000000000000     2.72986936221350
Tl     0.00000000000000     2.72986936221350     2.72986936221350
O     2.72986936221350     0.00000000000000     0.00000000000000
O     0.00000000000000     2.72986936221350     0.00000000000000
O     0.00000000000000     0.00000000000000     2.72986936221350
O     2.72986936221350     2.72986936221350     2.72986936221350
O     4.09480404332024     4.09480404332024     1.36493468110675
O     4.09480404332024     1.36493468110675     4.09480404332024
O     1.36493468110675     4.09480404332024     4.09480404332024
O     4.09480404332024     1.36493468110675     1.36493468110675
O     1.36493468110675     4.09480404332024     1.36493468110675
O     1.36493468110675     1.36493468110675     4.09480404332024