CRYSTAL
# Primitive lattice vectors in Angstrom
PRIMVEC
 5.33601245273280 0.00000000000000 0.00000000000000
 -0.00000000000000 5.33601245273280 0.00000000000000
 0.00000000000000 0.00000000000000 5.33601245273280
# Cartesian coordinates in Angstrom.
PRIMCOORD
 10 1
Tl     1.33400311318320     1.33400311318320     1.33400311318320
Tl     4.00200933954961     4.00200933954961     1.33400311318320
Tl     4.00200933954961     1.33400311318320     4.00200933954961
Tl     1.33400311318320     4.00200933954961     4.00200933954961
O     2.66800622636641     0.00000000000000     0.00000000000000
O     0.00000000000000     2.66800622636641     0.00000000000000
O     0.00000000000000     0.00000000000000     2.66800622636641
O     2.66800622636641     2.66800622636641     0.00000000000000
O     2.66800622636641     0.00000000000000     2.66800622636641
O     0.00000000000000     2.66800622636641     2.66800622636641