CRYSTAL
# Primitive lattice vectors in Angstrom
PRIMVEC
 4.22375735225724 0.00000000000000 0.00000000000000
 -0.00000000000000 4.22375735225724 0.00000000000000
 0.00000000000000 0.00000000000000 4.22375735225724
# Cartesian coordinates in Angstrom.
PRIMCOORD
 4 1
Tl     0.00000000000000     0.00000000000000     0.00000000000000
O     2.11187867612862     0.00000000000000     0.00000000000000
O     0.00000000000000     2.11187867612862     0.00000000000000
O     0.00000000000000     0.00000000000000     2.11187867612862