CRYSTAL
# Primitive lattice vectors in Angstrom
PRIMVEC
 5.21440308980275 0.00000000000000 0.00000000000000
 -0.00000000000000 5.21440308980275 0.00000000000000
 0.00000000000000 0.00000000000000 5.21440308980275
# Cartesian coordinates in Angstrom.
PRIMCOORD
 10 1
Tm     1.30360077245069     1.30360077245069     1.30360077245069
Tm     3.91080231735207     3.91080231735207     1.30360077245069
Tm     3.91080231735207     1.30360077245069     3.91080231735207
Tm     1.30360077245069     3.91080231735207     3.91080231735207
O     2.60720154490138     0.00000000000000     0.00000000000000
O     0.00000000000000     2.60720154490138     0.00000000000000
O     0.00000000000000     0.00000000000000     2.60720154490138
O     2.60720154490138     2.60720154490138     0.00000000000000
O     2.60720154490138     0.00000000000000     2.60720154490138
O     0.00000000000000     2.60720154490138     2.60720154490138