CRYSTAL
# Primitive lattice vectors in Angstrom
PRIMVEC
 5.31397239620005 0.00000000000000 0.00000000000000
 -0.00000000000000 5.31397239620005 0.00000000000000
 0.00000000000000 0.00000000000000 5.31397239620005
# Cartesian coordinates in Angstrom.
PRIMCOORD
 14 1
Tm     0.00000000000000     0.00000000000000     0.00000000000000
Tm     2.65698619810002     2.65698619810002     0.00000000000000
Tm     2.65698619810002     0.00000000000000     2.65698619810002
Tm     0.00000000000000     2.65698619810002     2.65698619810002
O     2.65698619810002     0.00000000000000     0.00000000000000
O     0.00000000000000     2.65698619810002     0.00000000000000
O     0.00000000000000     0.00000000000000     2.65698619810002
O     2.65698619810002     2.65698619810002     2.65698619810002
O     3.98547929715003     3.98547929715003     1.32849309905001
O     3.98547929715003     1.32849309905001     3.98547929715003
O     1.32849309905001     3.98547929715003     3.98547929715003
O     3.98547929715003     1.32849309905001     1.32849309905001
O     1.32849309905001     3.98547929715003     1.32849309905001
O     1.32849309905001     1.32849309905001     3.98547929715003