CRYSTAL
# Primitive lattice vectors in Angstrom
PRIMVEC
 4.14512139023322 0.00000000000000 0.00000000000000
 -0.00000000000000 4.14512139023322 0.00000000000000
 0.00000000000000 0.00000000000000 4.14512139023322
# Cartesian coordinates in Angstrom.
PRIMCOORD
 4 1
Tm     0.00000000000000     0.00000000000000     0.00000000000000
O     2.07256069511661     0.00000000000000     0.00000000000000
O     0.00000000000000     2.07256069511661     0.00000000000000
O     0.00000000000000     0.00000000000000     2.07256069511661