CRYSTAL
# Primitive lattice vectors in Angstrom
PRIMVEC
 5.26571224435810 0.00000000000000 0.00000000000000
 -0.00000000000000 5.26571224435810 0.00000000000000
 0.00000000000000 0.00000000000000 5.26571224435810
# Cartesian coordinates in Angstrom.
PRIMCOORD
 10 1
U     1.31642806108952     1.31642806108952     1.31642806108952
U     3.94928418326857     3.94928418326857     1.31642806108952
U     3.94928418326857     1.31642806108952     3.94928418326857
U     1.31642806108952     3.94928418326857     3.94928418326857
O     2.63285612217905     0.00000000000000     0.00000000000000
O     0.00000000000000     2.63285612217905     0.00000000000000
O     0.00000000000000     0.00000000000000     2.63285612217905
O     2.63285612217905     2.63285612217905     0.00000000000000
O     2.63285612217905     0.00000000000000     2.63285612217905
O     0.00000000000000     2.63285612217905     2.63285612217905