CRYSTAL
# Primitive lattice vectors in Angstrom
PRIMVEC
 5.28021478532092 0.00000000000000 0.00000000000000
 -0.00000000000000 5.28021478532092 0.00000000000000
 0.00000000000000 0.00000000000000 5.28021478532092
# Cartesian coordinates in Angstrom.
PRIMCOORD
 14 1
U     0.00000000000000     0.00000000000000     0.00000000000000
U     2.64010739266046     2.64010739266046     0.00000000000000
U     2.64010739266046     0.00000000000000     2.64010739266046
U     0.00000000000000     2.64010739266046     2.64010739266046
O     2.64010739266046     0.00000000000000     0.00000000000000
O     0.00000000000000     2.64010739266046     0.00000000000000
O     0.00000000000000     0.00000000000000     2.64010739266046
O     2.64010739266046     2.64010739266046     2.64010739266046
O     3.96016108899069     3.96016108899069     1.32005369633023
O     3.96016108899069     1.32005369633023     3.96016108899069
O     1.32005369633023     3.96016108899069     3.96016108899069
O     3.96016108899069     1.32005369633023     1.32005369633023
O     1.32005369633023     3.96016108899069     1.32005369633023
O     1.32005369633023     1.32005369633023     3.96016108899069