CRYSTAL
# Primitive lattice vectors in Angstrom
PRIMVEC
 4.12932267682672 0.00000000000000 0.00000000000000
 -0.00000000000000 4.12932267682672 0.00000000000000
 0.00000000000000 0.00000000000000 4.12932267682672
# Cartesian coordinates in Angstrom.
PRIMCOORD
 4 1
U     0.00000000000000     0.00000000000000     0.00000000000000
O     2.06466133841336     0.00000000000000     0.00000000000000
O     0.00000000000000     2.06466133841336     0.00000000000000
O     0.00000000000000     0.00000000000000     2.06466133841336