CRYSTAL
# Primitive lattice vectors in Angstrom
PRIMVEC
 4.86687475833684 0.00000000000000 0.00000000000000
 -0.00000000000000 4.86687475833684 0.00000000000000
 0.00000000000000 0.00000000000000 4.86687475833684
# Cartesian coordinates in Angstrom.
PRIMCOORD
 14 1
V     0.00000000000000     0.00000000000000     0.00000000000000
V     2.43343737916842     2.43343737916842     0.00000000000000
V     2.43343737916842     0.00000000000000     2.43343737916842
V     0.00000000000000     2.43343737916842     2.43343737916842
O     2.43343737916842     0.00000000000000     0.00000000000000
O     0.00000000000000     2.43343737916842     0.00000000000000
O     0.00000000000000     0.00000000000000     2.43343737916842
O     2.43343737916842     2.43343737916842     2.43343737916842
O     3.65015606875263     3.65015606875263     1.21671868958421
O     3.65015606875263     1.21671868958421     3.65015606875263
O     1.21671868958421     3.65015606875263     3.65015606875263
O     3.65015606875263     1.21671868958421     1.21671868958421
O     1.21671868958421     3.65015606875263     1.21671868958421
O     1.21671868958421     1.21671868958421     3.65015606875263