CRYSTAL
# Primitive lattice vectors in Angstrom
PRIMVEC
 4.61498387603517 0.00000000000000 0.00000000000000
 -0.00000000000000 4.61498387603517 0.00000000000000
 0.00000000000000 0.00000000000000 4.61498387603517
# Cartesian coordinates in Angstrom.
PRIMCOORD
 10 1
V     1.15374596900879     1.15374596900879     1.15374596900879
V     3.46123790702638     3.46123790702638     1.15374596900879
V     3.46123790702638     1.15374596900879     3.46123790702638
V     1.15374596900879     3.46123790702638     3.46123790702638
O     2.30749193801759     0.00000000000000     0.00000000000000
O     0.00000000000000     2.30749193801759     0.00000000000000
O     0.00000000000000     0.00000000000000     2.30749193801759
O     2.30749193801759     2.30749193801759     0.00000000000000
O     2.30749193801759     0.00000000000000     2.30749193801759
O     0.00000000000000     2.30749193801759     2.30749193801759