CRYSTAL
# Primitive lattice vectors in Angstrom
PRIMVEC
 3.65577967738375 0.00000000000000 0.00000000000000
 -0.00000000000000 3.65577967738375 0.00000000000000
 0.00000000000000 0.00000000000000 3.65577967738375
# Cartesian coordinates in Angstrom.
PRIMCOORD
 4 1
V     0.00000000000000     0.00000000000000     0.00000000000000
O     1.82788983869187     0.00000000000000     0.00000000000000
O     0.00000000000000     1.82788983869187     0.00000000000000
O     0.00000000000000     0.00000000000000     1.82788983869187