CRYSTAL
# Primitive lattice vectors in Angstrom
PRIMVEC
 4.80274016312741 0.00000000000000 0.00000000000000
 -0.00000000000000 4.80274016312741 0.00000000000000
 0.00000000000000 0.00000000000000 4.80274016312741
# Cartesian coordinates in Angstrom.
PRIMCOORD
 10 1
W     1.20068504078185     1.20068504078185     1.20068504078185
W     3.60205512234556     3.60205512234556     1.20068504078185
W     3.60205512234556     1.20068504078185     3.60205512234556
W     1.20068504078185     3.60205512234556     3.60205512234556
O     2.40137008156371     0.00000000000000     0.00000000000000
O     0.00000000000000     2.40137008156371     0.00000000000000
O     0.00000000000000     0.00000000000000     2.40137008156371
O     2.40137008156371     2.40137008156371     0.00000000000000
O     2.40137008156371     0.00000000000000     2.40137008156371
O     0.00000000000000     2.40137008156371     2.40137008156371