CRYSTAL
# Primitive lattice vectors in Angstrom
PRIMVEC
 4.95333564206302 0.00000000000000 0.00000000000000
 -0.00000000000000 4.95333564206302 0.00000000000000
 0.00000000000000 0.00000000000000 4.95333564206302
# Cartesian coordinates in Angstrom.
PRIMCOORD
 14 1
W     0.00000000000000     0.00000000000000     0.00000000000000
W     2.47666782103151     2.47666782103151     0.00000000000000
W     2.47666782103151     0.00000000000000     2.47666782103151
W     0.00000000000000     2.47666782103151     2.47666782103151
O     2.47666782103151     0.00000000000000     0.00000000000000
O     0.00000000000000     2.47666782103151     0.00000000000000
O     0.00000000000000     0.00000000000000     2.47666782103151
O     2.47666782103151     2.47666782103151     2.47666782103151
O     3.71500173154727     3.71500173154727     1.23833391051576
O     3.71500173154727     1.23833391051576     3.71500173154727
O     1.23833391051576     3.71500173154727     3.71500173154727
O     3.71500173154727     1.23833391051576     1.23833391051576
O     1.23833391051576     3.71500173154727     1.23833391051576
O     1.23833391051576     1.23833391051576     3.71500173154727