CRYSTAL
# Primitive lattice vectors in Angstrom
PRIMVEC
 3.79961381038699 0.00000000000000 0.00000000000000
 -0.00000000000000 3.79961381038699 0.00000000000000
 0.00000000000000 0.00000000000000 3.79961381038699
# Cartesian coordinates in Angstrom.
PRIMCOORD
 4 1
W     0.00000000000000     0.00000000000000     0.00000000000000
O     1.89980690519349     0.00000000000000     0.00000000000000
O     0.00000000000000     1.89980690519349     0.00000000000000
O     0.00000000000000     0.00000000000000     1.89980690519349