CRYSTAL
# Primitive lattice vectors in Angstrom
PRIMVEC
 4.01766193464697 0.00000000000000 0.00000000000000
 -0.00000000000000 4.01766193464697 0.00000000000000
 0.00000000000000 0.00000000000000 4.01766193464697
# Cartesian coordinates in Angstrom.
PRIMCOORD
 4 1
Xe     0.00000000000000     0.00000000000000     0.00000000000000
O     2.00883096732348     0.00000000000000     0.00000000000000
O     0.00000000000000     2.00883096732348     0.00000000000000
O     0.00000000000000     0.00000000000000     2.00883096732348