CRYSTAL
# Primitive lattice vectors in Angstrom
PRIMVEC
 5.70200822148634 0.00000000000000 0.00000000000000
 -0.00000000000000 5.70200822148634 0.00000000000000
 0.00000000000000 0.00000000000000 5.70200822148634
# Cartesian coordinates in Angstrom.
PRIMCOORD
 10 1
Xe     1.42550205537158     1.42550205537158     1.42550205537158
Xe     4.27650616611476     4.27650616611476     1.42550205537158
Xe     4.27650616611476     1.42550205537158     4.27650616611476
Xe     1.42550205537158     4.27650616611476     4.27650616611476
O     2.85100411074317     0.00000000000000     0.00000000000000
O     0.00000000000000     2.85100411074317     0.00000000000000
O     0.00000000000000     0.00000000000000     2.85100411074317
O     2.85100411074317     2.85100411074317     0.00000000000000
O     2.85100411074317     0.00000000000000     2.85100411074317
O     0.00000000000000     2.85100411074317     2.85100411074317