CRYSTAL
# Primitive lattice vectors in Angstrom
PRIMVEC
 5.55360099986880 0.00000000000000 0.00000000000000
 -0.00000000000000 5.55360099986880 0.00000000000000
 0.00000000000000 0.00000000000000 5.55360099986880
# Cartesian coordinates in Angstrom.
PRIMCOORD
 14 1
Xe     0.00000000000000     0.00000000000000     0.00000000000000
Xe     2.77680049993440     2.77680049993440     0.00000000000000
Xe     2.77680049993440     0.00000000000000     2.77680049993440
Xe     0.00000000000000     2.77680049993440     2.77680049993440
O     2.77680049993440     0.00000000000000     0.00000000000000
O     0.00000000000000     2.77680049993440     0.00000000000000
O     0.00000000000000     0.00000000000000     2.77680049993440
O     2.77680049993440     2.77680049993440     2.77680049993440
O     4.16520074990160     4.16520074990160     1.38840024996720
O     4.16520074990160     1.38840024996720     4.16520074990160
O     1.38840024996720     4.16520074990160     4.16520074990160
O     4.16520074990160     1.38840024996720     1.38840024996720
O     1.38840024996720     4.16520074990160     1.38840024996720
O     1.38840024996720     1.38840024996720     4.16520074990160