CRYSTAL
# Primitive lattice vectors in Angstrom
PRIMVEC
 5.41060386080141 0.00000000000000 0.00000000000000
 -0.00000000000000 5.41060386080141 0.00000000000000
 0.00000000000000 0.00000000000000 5.41060386080141
# Cartesian coordinates in Angstrom.
PRIMCOORD
 14 1
Y     0.00000000000000     0.00000000000000     0.00000000000000
Y     2.70530193040071     2.70530193040071     0.00000000000000
Y     2.70530193040071     0.00000000000000     2.70530193040071
Y     0.00000000000000     2.70530193040071     2.70530193040071
O     2.70530193040071     0.00000000000000     0.00000000000000
O     0.00000000000000     2.70530193040071     0.00000000000000
O     0.00000000000000     0.00000000000000     2.70530193040071
O     2.70530193040071     2.70530193040071     2.70530193040071
O     4.05795289560106     4.05795289560106     1.35265096520035
O     4.05795289560106     1.35265096520035     4.05795289560106
O     1.35265096520035     4.05795289560106     4.05795289560106
O     4.05795289560106     1.35265096520035     1.35265096520035
O     1.35265096520035     4.05795289560106     1.35265096520035
O     1.35265096520035     1.35265096520035     4.05795289560106