CRYSTAL
# Primitive lattice vectors in Angstrom
PRIMVEC
 5.28209886343407 0.00000000000000 0.00000000000000
 -0.00000000000000 5.28209886343407 0.00000000000000
 0.00000000000000 0.00000000000000 5.28209886343407
# Cartesian coordinates in Angstrom.
PRIMCOORD
 10 1
Y     1.32052471585852     1.32052471585852     1.32052471585852
Y     3.96157414757556     3.96157414757556     1.32052471585852
Y     3.96157414757556     1.32052471585852     3.96157414757556
Y     1.32052471585852     3.96157414757556     3.96157414757556
O     2.64104943171704     0.00000000000000     0.00000000000000
O     0.00000000000000     2.64104943171704     0.00000000000000
O     0.00000000000000     0.00000000000000     2.64104943171704
O     2.64104943171704     2.64104943171704     0.00000000000000
O     2.64104943171704     0.00000000000000     2.64104943171704
O     0.00000000000000     2.64104943171704     2.64104943171704