CRYSTAL
# Primitive lattice vectors in Angstrom
PRIMVEC
 4.40181234800620 0.00000000000000 0.00000000000000
 -0.00000000000000 4.40181234800620 0.00000000000000
 0.00000000000000 0.00000000000000 4.40181234800620
# Cartesian coordinates in Angstrom.
PRIMCOORD
 4 1
Y     0.00000000000000     0.00000000000000     0.00000000000000
O     2.20090617400309     0.00000000000000     0.00000000000000
O     0.00000000000000     2.20090617400309     0.00000000000000
O     0.00000000000000     0.00000000000000     2.20090617400309