CRYSTAL
# Primitive lattice vectors in Angstrom
PRIMVEC
 4.17661262250390 0.00000000000000 0.00000000000000
 -0.00000000000000 4.17661262250390 0.00000000000000
 0.00000000000000 0.00000000000000 4.17661262250390
# Cartesian coordinates in Angstrom.
PRIMCOORD
 4 1
Yb     0.00000000000000     0.00000000000000     0.00000000000000
O     2.08830631125195     0.00000000000000     0.00000000000000
O     0.00000000000000     2.08830631125195     0.00000000000000
O     0.00000000000000     0.00000000000000     2.08830631125195