CRYSTAL
# Primitive lattice vectors in Angstrom
PRIMVEC
 5.21257212320958 0.00000000000000 0.00000000000000
 -0.00000000000000 5.21257212320958 0.00000000000000
 0.00000000000000 0.00000000000000 5.21257212320958
# Cartesian coordinates in Angstrom.
PRIMCOORD
 10 1
Yb     1.30314303080239     1.30314303080239     1.30314303080239
Yb     3.90942909240719     3.90942909240719     1.30314303080239
Yb     3.90942909240719     1.30314303080239     3.90942909240719
Yb     1.30314303080239     3.90942909240719     3.90942909240719
O     2.60628606160479     0.00000000000000     0.00000000000000
O     0.00000000000000     2.60628606160479     0.00000000000000
O     0.00000000000000     0.00000000000000     2.60628606160479
O     2.60628606160479     2.60628606160479     0.00000000000000
O     2.60628606160479     0.00000000000000     2.60628606160479
O     0.00000000000000     2.60628606160479     2.60628606160479