CRYSTAL
# Primitive lattice vectors in Angstrom
PRIMVEC
 5.32566209835939 0.00000000000000 0.00000000000000
 -0.00000000000000 5.32566209835939 0.00000000000000
 0.00000000000000 0.00000000000000 5.32566209835939
# Cartesian coordinates in Angstrom.
PRIMCOORD
 14 1
Yb     0.00000000000000     0.00000000000000     0.00000000000000
Yb     2.66283104917969     2.66283104917969     0.00000000000000
Yb     2.66283104917969     0.00000000000000     2.66283104917969
Yb     0.00000000000000     2.66283104917969     2.66283104917969
O     2.66283104917969     0.00000000000000     0.00000000000000
O     0.00000000000000     2.66283104917969     0.00000000000000
O     0.00000000000000     0.00000000000000     2.66283104917969
O     2.66283104917969     2.66283104917969     2.66283104917969
O     3.99424657376954     3.99424657376954     1.33141552458985
O     3.99424657376954     1.33141552458985     3.99424657376954
O     1.33141552458985     3.99424657376954     3.99424657376954
O     3.99424657376954     1.33141552458985     1.33141552458985
O     1.33141552458985     3.99424657376954     1.33141552458985
O     1.33141552458985     1.33141552458985     3.99424657376954