CRYSTAL
# Primitive lattice vectors in Angstrom
PRIMVEC
 3.78486314932561 0.00000000000000 0.00000000000000
 -0.00000000000000 3.78486314932561 0.00000000000000
 0.00000000000000 0.00000000000000 3.78486314932561
# Cartesian coordinates in Angstrom.
PRIMCOORD
 4 1
Zn     0.00000000000000     0.00000000000000     0.00000000000000
O     1.89243157466280     0.00000000000000     0.00000000000000
O     0.00000000000000     1.89243157466280     0.00000000000000
O     0.00000000000000     0.00000000000000     1.89243157466280