CRYSTAL
# Primitive lattice vectors in Angstrom
PRIMVEC
 4.76427348892716 0.00000000000000 0.00000000000000
 -0.00000000000000 4.76427348892716 0.00000000000000
 0.00000000000000 0.00000000000000 4.76427348892716
# Cartesian coordinates in Angstrom.
PRIMCOORD
 10 1
Zn     1.19106837223179     1.19106837223179     1.19106837223179
Zn     3.57320511669537     3.57320511669537     1.19106837223179
Zn     3.57320511669537     1.19106837223179     3.57320511669537
Zn     1.19106837223179     3.57320511669537     3.57320511669537
O     2.38213674446358     0.00000000000000     0.00000000000000
O     0.00000000000000     2.38213674446358     0.00000000000000
O     0.00000000000000     0.00000000000000     2.38213674446358
O     2.38213674446358     2.38213674446358     0.00000000000000
O     2.38213674446358     0.00000000000000     2.38213674446358
O     0.00000000000000     2.38213674446358     2.38213674446358