CRYSTAL
# Primitive lattice vectors in Angstrom
PRIMVEC
 5.06857352383447 0.00000000000000 0.00000000000000
 -0.00000000000000 5.06857352383447 0.00000000000000
 0.00000000000000 0.00000000000000 5.06857352383447
# Cartesian coordinates in Angstrom.
PRIMCOORD
 14 1
Zn     0.00000000000000     0.00000000000000     0.00000000000000
Zn     2.53428676191723     2.53428676191723     0.00000000000000
Zn     2.53428676191723     0.00000000000000     2.53428676191723
Zn     0.00000000000000     2.53428676191723     2.53428676191723
O     2.53428676191723     0.00000000000000     0.00000000000000
O     0.00000000000000     2.53428676191723     0.00000000000000
O     0.00000000000000     0.00000000000000     2.53428676191723
O     2.53428676191723     2.53428676191723     2.53428676191723
O     3.80143014287585     3.80143014287585     1.26714338095862
O     3.80143014287585     1.26714338095862     3.80143014287585
O     1.26714338095862     3.80143014287585     3.80143014287585
O     3.80143014287585     1.26714338095862     1.26714338095862
O     1.26714338095862     3.80143014287585     1.26714338095862
O     1.26714338095862     1.26714338095862     3.80143014287585