CRYSTAL
# Primitive lattice vectors in Angstrom
PRIMVEC
 5.18041560699894 0.00000000000000 0.00000000000000
 -0.00000000000000 5.18041560699894 0.00000000000000
 0.00000000000000 0.00000000000000 5.18041560699894
# Cartesian coordinates in Angstrom.
PRIMCOORD
 14 1
Zr     0.00000000000000     0.00000000000000     0.00000000000000
Zr     2.59020780349947     2.59020780349947     0.00000000000000
Zr     2.59020780349947     0.00000000000000     2.59020780349947
Zr     0.00000000000000     2.59020780349947     2.59020780349947
O     2.59020780349947     0.00000000000000     0.00000000000000
O     0.00000000000000     2.59020780349947     0.00000000000000
O     0.00000000000000     0.00000000000000     2.59020780349947
O     2.59020780349947     2.59020780349947     2.59020780349947
O     3.88531170524921     3.88531170524921     1.29510390174974
O     3.88531170524921     1.29510390174974     3.88531170524921
O     1.29510390174974     3.88531170524921     3.88531170524921
O     3.88531170524921     1.29510390174974     1.29510390174974
O     1.29510390174974     3.88531170524921     1.29510390174974
O     1.29510390174974     1.29510390174974     3.88531170524921