CRYSTAL
# Primitive lattice vectors in Angstrom
PRIMVEC
 5.01711447394282 0.00000000000000 0.00000000000000
 -0.00000000000000 5.01711447394282 0.00000000000000
 0.00000000000000 0.00000000000000 5.01711447394282
# Cartesian coordinates in Angstrom.
PRIMCOORD
 10 1
Zr     1.25427861848570     1.25427861848570     1.25427861848570
Zr     3.76283585545712     3.76283585545712     1.25427861848570
Zr     3.76283585545712     1.25427861848570     3.76283585545712
Zr     1.25427861848570     3.76283585545712     3.76283585545712
O     2.50855723697141     0.00000000000000     0.00000000000000
O     0.00000000000000     2.50855723697141     0.00000000000000
O     0.00000000000000     0.00000000000000     2.50855723697141
O     2.50855723697141     2.50855723697141     0.00000000000000
O     2.50855723697141     0.00000000000000     2.50855723697141
O     0.00000000000000     2.50855723697141     2.50855723697141