CRYSTAL
# Primitive lattice vectors in Angstrom
PRIMVEC
 4.12796301179311 0.00000000000000 0.00000000000000
 -0.00000000000000 4.12796301179311 0.00000000000000
 0.00000000000000 0.00000000000000 4.12796301179311
# Cartesian coordinates in Angstrom.
PRIMCOORD
 4 1
Zr     0.00000000000000     0.00000000000000     0.00000000000000
O     2.06398150589655     0.00000000000000     0.00000000000000
O     0.00000000000000     2.06398150589655     0.00000000000000
O     0.00000000000000     0.00000000000000     2.06398150589655